 vasp.5.4.1 24Jun15 (build Mar 14 2019 10:18:33) complex

 executed on INTEL-19.0.2+OPENMPI date 2023.01.24  11:56:24

 INCAR:
 POTCAR:    PAW_PBE Au 04Oct2007
 POTCAR:    PAW_PBE O 08Apr2002
 POTCAR:    PAW_PBE Pd 04Jan2005
 POTCAR:    PAW_PBE Au 04Oct2007

 POTCAR:    PAW_PBE O 08Apr2002

 POTCAR:    PAW_PBE Pd 04Jan2005

 Optimization of the real space projectors (new method)

 maximal supplied QI-value         = 15.12
 optimisation between [QCUT,QGAM] = [ 10.13, 20.41] = [ 28.73,116.64] Ry
 Optimized for a Real-space Cutoff    1.51 Angstroem

   l    n(q)    QCUT    max X(q) W(low)/X(q) W(high)/X(q)  e(spline)
   2      8    10.129    60.898    0.46E-03    0.46E-03    0.14E-06
   2      8    10.129    58.894    0.47E-03    0.47E-03    0.14E-06
   0      9    10.129   109.617    0.16E-03    0.11E-03    0.54E-07
   0      9    10.129    75.026    0.15E-03    0.11E-03    0.52E-07
   1      9    10.129    16.344    0.96E-04    0.15E-03    0.14E-06
   1      9    10.129    10.160    0.81E-04    0.12E-03    0.11E-06
 Optimization of the real space projectors (new method)

[...]

   l    n(q)    QCUT    max X(q) W(low)/X(q) W(high)/X(q)  e(spline)
   0      8    10.150    20.381    0.22E-03    0.32E-03    0.29E-06
   0      8    10.150    15.268    0.23E-03    0.35E-03    0.30E-06
   1      8    10.150     5.964    0.46E-03    0.53E-03    0.21E-06
   1      8    10.150     5.382    0.38E-03    0.45E-03    0.19E-06
 Optimization of the real space projectors (new method)

 maximal supplied QI-value         = 14.36
 optimisation between [QCUT,QGAM] = [ 10.20, 20.39] = [ 29.12,116.47] Ry
 Optimized for a Real-space Cutoff    1.51 Angstroem

   l    n(q)    QCUT    max X(q) W(low)/X(q) W(high)/X(q)  e(spline)
   2      8    10.197    59.108    0.26E-03    0.14E-03    0.96E-07
   2      8    10.197    58.101    0.27E-03    0.14E-03    0.98E-07
   0      9    10.197   102.235    0.54E-04    0.60E-05    0.72E-07
   0      9    10.197    58.388    0.52E-04    0.60E-05    0.68E-07
   1      9    10.197    22.191    0.18E-03    0.25E-03    0.79E-07
   1      9    10.197    15.590    0.15E-03    0.21E-03    0.69E-07
  PAW_PBE Au 04Oct2007                  :
  PAW_PBE O 08Apr2002                   :
  PAW_PBE Pd 04Jan2005                  :

 POSCAR: Au  O Pd
  positions in direct lattice
  velocities in cartesian coordinates
 exchange correlation table for  LEXCH =        8
   RHO(1)=    0.500       N(1)  =     2000
   RHO(2)=  100.500       N(2)  =     4000

 VTST: version 3.2, (02/03/18)

 CHAIN: initializing optimizer

 OPT: Using VASP Conjugate-Gradient optimizer
 CHAIN: Read ICHAIN            0

 POSCAR: Au  O Pd
  positions in direct lattice
  velocities in cartesian coordinates

 ion  position               nearest neighbor table
   1  0.083  0.083  0.382-   2 2.75   3 2.75   8 2.75  49 2.75  41 2.75  10 2.75  55 2.86  42 2.89
                            52 2.91
   2  0.333  0.833  0.382-   1 2.75  17 2.75  37 2.75  41 2.75  14 2.75   3 2.75  42 2.90  16 2.92
                            44 2.96
   3  0.083  0.833  0.382-   1 2.75  10 2.75  37 2.75  45 2.75   2 2.75  53 2.75  23 2.89  42 2.91
                            56 2.91
   4  0.661  0.673  0.510-  16 2.82  44 2.83  54 2.84  11 2.85   7 2.89  48 2.91  51 2.93  12 3.09
                            21 3.20  13 3.50  15 3.51
   5  0.833  0.583  0.382-   8 2.75  14 2.75  49 2.75  53 2.75  17 2.75  45 2.75  11 2.87   7 2.94

   6  0.758  0.248  0.564-  47 2.69  51 2.73  15 2.75  50 2.75  18 2.76  52 2.78  48 2.85   9 2.85
                            46 2.87
   7  0.908  0.419  0.477-  48 2.66  52 2.75  11 2.77  20 2.78  47 2.82  55 2.83  13 2.85   4 2.89
                             8 2.93   5 2.94  49 3.00  51 3.41
   8  0.833  0.333  0.382-   1 2.75   5 2.75  10 2.75  17 2.75  34 2.75  49 2.75  52 2.91  48 2.91
                             7 2.93
   9  0.757  0.989  0.562-  30 2.03  18 2.70  43 2.70  50 2.74  56 2.74  21 2.80  54 2.84   6 2.85
                            46 2.85  39 2.91
  10  0.833  0.083  0.382-   3 2.75   8 2.75  34 2.75  53 2.75   1 2.75  24 2.75  56 2.89  52 2.89
                            46 2.89
  11  0.907  0.672  0.474-  54 2.67  56 2.74   7 2.77  20 2.82  23 2.82   4 2.85  53 2.87   5 2.87
                            43 2.88  13 2.90  45 2.95
  12  0.482  0.747  0.608-  32 2.08  31 2.12  33 2.67  40 2.71  21 2.86  15 2.88  51 3.08   4 3.09

  13  0.995  0.503  0.567-  29 2.15  43 2.71  51 2.75  38 2.82  47 2.84  36 2.84   7 2.85  11 2.90
                            20 2.92  39 3.29   4 3.50
  14  0.583  0.833  0.382-   5 2.75  17 2.75  24 2.75  41 2.75   2 2.75  53 2.75  54 2.83  44 3.00

  15  0.506  0.494  0.566-  31 2.18  40 2.74   6 2.75  38 2.76  18 2.81  48 2.84  12 2.88  16 2.89
                            51 2.92  19 2.94   4 3.51
  16  0.421  0.669  0.476-  44 2.68  48 2.72  42 2.77  40 2.79  19 2.80  23 2.82   4 2.82  15 2.89
                            17 2.92   2 2.92  37 2.97
  17  0.583  0.583  0.382-   2 2.75   8 2.75  14 2.75  34 2.75   5 2.75  37 2.75  48 2.89  16 2.92

  18  0.514  0.235  0.569-  27 2.14   9 2.70   6 2.76  36 2.80  15 2.81  46 2.87  38 2.91  21 2.91
                            22 2.93  19 3.06
  19  0.420  0.415  0.472-  46 2.73  48 2.74  23 2.79  16 2.80  22 2.81  34 2.82  20 2.83  35 2.85
                            37 2.85  38 2.87  15 2.94  18 3.06
  20  0.163  0.415  0.473-  55 2.75   7 2.78  22 2.78  23 2.80  11 2.82  19 2.83  49 2.84  38 2.88
                            45 2.88  35 2.90  13 2.92  36 3.03
  21  0.512  0.971  0.567-  32 2.24  33 2.75  44 2.76   9 2.80  54 2.86  12 2.86  18 2.91  36 2.94
                            22 2.99   4 3.20  39 3.25
  22  0.415  0.162  0.476-  44 2.72  55 2.73  54 2.73  20 2.78  46 2.79  19 2.81  41 2.90  18 2.93
                            36 2.94  24 2.95  35 2.96  21 2.99
  23  0.165  0.668  0.474-  56 2.76  42 2.76  19 2.79  20 2.80  38 2.81  16 2.82  11 2.82  43 2.83
                            40 2.88   3 2.89  45 2.90  37 2.91
  24  0.583  0.083  0.382-  14 2.75  34 2.75  35 2.75  53 2.75  41 2.75  10 2.75  54 2.88  46 2.89
                            22 2.95
  25  0.984  0.727  0.636-  43 1.90  39 1.94
  26  0.150  0.184  0.617-  47 1.98  36 1.98  33 2.01
  27  0.329  0.347  0.615-  38 1.99  36 2.03  18 2.14
  28  0.152  0.901  0.615-  50 1.98  40 2.00  33 2.02
  29  0.858  0.572  0.632-  51 1.98  39 2.00  13 2.15
  30  0.733  0.976  0.638-  39 1.94   9 2.03
  31  0.593  0.537  0.634-  51 1.97  12 2.12  15 2.18
  32  0.584  0.846  0.639-  39 1.97  12 2.08  21 2.24
  33  0.256  0.993  0.585-  26 2.01  28 2.02  12 2.67  21 2.75  40 2.75  47 2.79  36 2.80  50 2.83
                            44 3.17  42 3.28  55 3.34
  34  0.583  0.333  0.382-  10 2.75  17 2.75  24 2.75  37 2.75  35 2.75   8 2.75  19 2.82  46 2.90
                            48 2.92
  35  0.333  0.333  0.382-  24 2.75  37 2.75  41 2.75  45 2.75  34 2.75  49 2.75  19 2.85  20 2.90
                            22 2.96
  36  0.254  0.246  0.572-  26 1.98  27 2.03  47 2.77  18 2.80  38 2.80  33 2.80  13 2.84  22 2.94
                            21 2.94  20 3.03  55 3.04
  37  0.333  0.583  0.382-   2 2.75   3 2.75  34 2.75  35 2.75  17 2.75  45 2.75  19 2.85  23 2.91
                            16 2.97
  38  0.252  0.501  0.563-  27 1.99  43 2.71  40 2.73  15 2.76  36 2.80  23 2.81  13 2.82  19 2.87
                            20 2.88  18 2.91
  39  0.787  0.779  0.636-  25 1.94  30 1.94  32 1.97  29 2.00  43 2.90   9 2.91  21 3.25  13 3.29

  40  0.259  0.746  0.565-  28 2.00  12 2.71  38 2.73  15 2.74  33 2.75  50 2.77  16 2.79  43 2.81
                            23 2.88  42 2.88
  41  0.333  0.083  0.382-   2 2.75  14 2.75  35 2.75  49 2.75   1 2.75  24 2.75  55 2.88  22 2.90
                            44 2.99
  42  0.166  0.918  0.474-  55 2.70  44 2.71  52 2.74  23 2.76  16 2.77  50 2.78  56 2.78  40 2.88
                             1 2.89   2 2.90   3 2.91  33 3.28
  43  0.004  0.745  0.565-  25 1.90   9 2.70  38 2.71  13 2.71  50 2.74  40 2.81  23 2.83  11 2.88
                            39 2.90  56 2.90
  44  0.414  0.916  0.478-  16 2.68  42 2.71  22 2.72  55 2.72  54 2.74  21 2.76   4 2.83   2 2.96
                            41 2.99  14 3.00  33 3.17
  45  0.083  0.583  0.382-   3 2.75  35 2.75  49 2.75  53 2.75   5 2.75  37 2.75  20 2.88  23 2.90
                            11 2.95
  46  0.666  0.166  0.474-  56 2.73  19 2.73  52 2.75  54 2.79  22 2.79  48 2.80   9 2.85   6 2.87
                            18 2.87  24 2.89  10 2.89  34 2.90
  47  0.007  0.239  0.562-  26 1.98   6 2.69  50 2.71  36 2.77  51 2.77  52 2.78  55 2.79  33 2.79
                             7 2.82  13 2.84
  48  0.666  0.420  0.475-   7 2.66  16 2.72  19 2.74  52 2.77  46 2.80  15 2.84   6 2.85  17 2.89
                             4 2.91   8 2.91  34 2.92
  49  0.083  0.333  0.382-   1 2.75   5 2.75  41 2.75  45 2.75   8 2.75  35 2.75  20 2.84  55 2.90
                             7 3.00
  50  0.004  0.994  0.563-  28 1.98  47 2.71   9 2.74  43 2.74   6 2.75  40 2.77  42 2.78  56 2.81
                            33 2.83  52 2.83
  51  0.769  0.478  0.597-  31 1.97  29 1.98   6 2.73  13 2.75  47 2.77  15 2.92   4 2.93  12 3.08
                             7 3.41
  52  0.916  0.166  0.475-  42 2.74  56 2.74  55 2.74  46 2.75   7 2.75  48 2.77   6 2.78  47 2.78
                            50 2.83  10 2.89   1 2.91   8 2.91
  53  0.833  0.833  0.382-   5 2.75  10 2.75  24 2.75  45 2.75   3 2.75  14 2.75  11 2.87  56 2.88
                            54 2.88
  54  0.663  0.914  0.473-  11 2.67  22 2.73  44 2.74  56 2.78  46 2.79  14 2.83   4 2.84   9 2.84
                            21 2.86  24 2.88  53 2.88
  55  0.167  0.163  0.473-  42 2.70  44 2.72  22 2.73  52 2.74  20 2.75  47 2.79   7 2.83   1 2.86
                            41 2.88  49 2.90  36 3.04  33 3.34
  56  0.914  0.918  0.474-  46 2.73  52 2.74  11 2.74   9 2.74  23 2.76  42 2.78  54 2.78  50 2.81
                            53 2.88  10 2.89  43 2.90   3 2.91

  LATTYP: Found a hexagonal cell.
 ALAT       =    11.0025815153
 C/A-ratio  =     2.3805127059

  Lattice vectors:

 A1 = (   5.5012907576,  -9.5285150994,   0.0000000000)
 A2 = ( -11.0025815153,   0.0000000000,   0.0000000000)
 A3 = (   0.0000000000,   0.0000000000, -26.1917850943)

Analysis of symmetry for initial positions (statically):
 Subroutine PRICEL returns:
 Original cell was already a primitive cell.

 Routine SETGRP: Setting up the symmetry group for a
 hexagonal supercell.

 Subroutine GETGRP returns: Found  1 space group operations
 (whereof  1 operations were pure point group operations)
 out of a pool of 24 trial point group operations.

The static configuration has the point symmetry C_1 .

Analysis of symmetry for dynamics (positions and initial velocities):
 Subroutine PRICEL returns:
 Original cell was already a primitive cell.

[...]

The dynamic configuration has the point symmetry C_1 .

Analysis of constrained symmetry for selective dynamics:
 Subroutine PRICEL returns:
 Original cell was already a primitive cell.

 Routine SETGRP: Setting up the symmetry group for a
 hexagonal supercell.

[...]
      6     -19.3523      2.00000
      7     -19.0605      2.00000
      8     -18.8240      2.00000
      9      -9.0793      2.00000
     10      -8.5983      2.00000
     11      -8.5264      2.00000
     12      -8.1234      2.00000
     13      -8.0178      2.00000
     14      -7.9492      2.00000
     15      -7.8321      2.00000
     16      -7.7632      2.00000
     17      -7.6813      2.00000
     18      -7.6404      2.00000
     19      -7.5768      2.00000
     20      -7.5442      2.00000
     21      -7.4989      2.00000
     22      -7.4834      2.00000
     23      -7.4317      2.00000
     24      -7.3927      2.00000
     25      -7.3878      2.00000
     26      -7.3582      2.00000
     27      -7.3280      2.00000
     28      -7.2692      2.00000
     29      -7.2585      2.00000
     30      -7.2244      2.00000
     31      -7.2065      2.00000
     32      -7.1568      2.00000
     33      -7.1130      2.00000
     34      -7.1070      2.00000
     35      -7.0753      2.00000
     36      -7.0459      2.00000
     37      -7.0000      2.00000
     38      -6.9572      2.00000
     39      -6.9336      2.00000
     40      -6.9128      2.00000
     41      -6.8901      2.00000
     42      -6.8485      2.00000
     43      -6.8388      2.00000
     44      -6.8047      2.00000
     45      -6.7943      2.00000
     46      -6.7629      2.00000
     47      -6.7336      2.00000
     48      -6.7252      2.00000
     49      -6.7052      2.00000
     50      -6.6698      2.00000
     51      -6.6453      2.00000
     52      -6.6369      2.00000
     53      -6.6090      2.00000
     54      -6.5765      2.00000
     55      -6.5477      2.00000
     56      -6.5104      2.00000
     57      -6.4926      2.00000
     58      -6.4677      2.00000
     59      -6.4581      2.00000
     60      -6.4405      2.00000
[...]
    322       3.8881      0.00000
    323       3.9984      0.00000
    324       4.1205      0.00000
    325       4.2906      0.00000
    326       4.3621      0.00000
    327       4.4013      0.00000
    328       4.4962      0.00000
    329       4.6233      0.00000
    330       4.6561      0.00000
    331       4.7674      0.00000
    332       4.8278      0.00000
    333       4.8664      0.00000
    334       4.9263      0.00000
    335       4.9741      0.00000
    336       5.0666      0.00000

 soft charge-density along one line, spin component           1
         0         1         2         3         4         5         6         7         8         9
 total charge-density along one line

------------------------ aborting loop because EDIFF is reached ----------------------------------------

 VOLUME and BASIS-vectors are now :
  energy-cutoff  :      400.00
  volume of cell :     2745.90
      direct lattice vectors                 reciprocal lattice vectors
    11.002581515  0.000000000  0.000000000     0.090887761 -0.052474073  0.000000000
     5.501290758  9.528515099  0.000000000     0.000000000  0.104948147  0.000000000
     0.000000000  0.000000000 26.191785094     0.000000000  0.000000000  0.038179910

  length of vectors
    11.002581515 11.002581515 26.191785094     0.104948147  0.104948147  0.038179910

 FORCES acting on ions
    electron-ion (+dipol)            ewald-force                    non-local-force                 convergence-correction
   -.269E+02 -.135E+02 0.250E+04   0.280E+02 0.140E+02 -.249E+04   -.769E+00 -.354E+00 -.762E+00   -.298E-02 -.395E-02 0.381E-02
   -.322E+02 0.719E+01 0.248E+04   0.324E+02 -.694E+01 -.248E+04   -.109E+00 -.192E+00 -.320E+00   -.525E-03 -.376E-03 0.611E-02
   0.866E+01 0.227E+02 0.250E+04   -.934E+01 -.237E+02 -.250E+04   0.440E+00 0.582E+00 -.474E+00   0.598E-03 0.225E-02 0.663E-02
   -.164E+02 -.680E+01 -.452E+03   0.162E+02 0.710E+01 0.451E+03   0.269E+00 -.309E+00 0.150E+01   -.408E-02 0.424E-02 0.765E-02
   0.243E+02 -.206E+02 0.244E+04   -.234E+02 0.208E+02 -.244E+04   -.708E+00 -.103E+00 0.180E+00   -.253E-02 0.294E-02 0.343E-02
   0.222E+01 0.967E+01 -.187E+04   -.817E+00 -.882E+01 0.187E+04   -.139E+01 -.861E+00 0.106E+01   -.387E-02 -.437E-03 0.310E-02
   0.428E+02 -.525E+02 0.280E+03   -.435E+02 0.515E+02 -.279E+03   0.646E+00 0.103E+01 -.655E+00   -.576E-02 0.150E-02 0.601E-02
   -.245E+01 -.287E+02 0.248E+04   0.214E+01 0.287E+02 -.248E+04   0.280E+00 0.554E-01 -.378E+00   -.148E-02 -.457E-03 0.321E-02
   -.197E+02 -.593E+02 -.158E+04   0.200E+02 0.600E+02 0.158E+04   -.269E+00 -.672E+00 0.181E+00   0.156E-02 -.419E-03 0.339E-02
   0.163E+02 -.493E+01 0.250E+04   -.169E+02 0.500E+01 -.250E+04   0.328E+00 -.452E-01 -.843E+00   0.119E-02 -.223E-02 0.418E-02
   0.830E+02 -.890E+01 0.329E+03   -.832E+02 0.104E+02 -.329E+03   0.221E+00 -.148E+01 -.114E-01   0.322E-02 0.559E-02 0.941E-02
   0.125E+03 -.172E+02 -.247E+04   -.126E+03 0.185E+02 0.246E+04   0.546E+00 -.124E+01 0.710E+00   -.656E-02 -.673E-03 -.172E-03
   -.349E+02 0.519E+02 -.171E+04   0.354E+02 -.523E+02 0.171E+04   -.461E+00 0.406E+00 0.105E+01   0.287E-02 0.566E-02 0.127E-02
   0.653E+01 0.375E+02 0.242E+04   -.614E+01 -.370E+02 -.242E+04   -.423E+00 -.455E+00 -.163E+00   0.739E-04 -.866E-03 0.509E-02
   0.583E+02 0.448E+02 -.178E+04   -.597E+02 -.451E+02 0.178E+04   0.147E+01 0.250E+00 0.131E+01   -.544E-02 0.118E-01 0.461E-02
   -.801E+02 -.162E+02 0.297E+03   0.803E+02 0.169E+02 -.296E+03   -.209E+00 -.657E+00 -.106E+01   -.361E-02 0.433E-02 0.117E-01
   -.311E+02 -.184E+02 0.243E+04   0.303E+02 0.178E+02 -.243E+04   0.622E+00 0.526E+00 -.405E-01   0.837E-03 0.232E-02 0.456E-02
   -.617E+02 0.595E+01 -.191E+04   0.630E+02 -.670E+01 0.191E+04   -.131E+01 0.738E+00 0.113E+01   -.292E-03 0.845E-03 0.389E-02
   -.784E+01 0.756E+01 0.393E+03   0.892E+01 -.789E+01 -.394E+03   -.108E+01 0.327E+00 0.117E+01   0.205E-02 0.137E-02 0.117E-01
   0.943E+01 0.140E+02 0.368E+03   -.993E+01 -.146E+02 -.369E+03   0.492E+00 0.597E+00 0.588E+00   0.364E-02 0.574E-02 0.634E-02
   0.180E+02 -.612E+02 -.169E+04   -.195E+02 0.619E+02 0.168E+04   0.152E+01 -.688E+00 0.193E+01   -.243E-02 -.426E-02 0.640E-02
   0.126E+02 0.105E+02 0.293E+03   -.133E+02 -.114E+02 -.293E+03   0.762E+00 0.971E+00 0.102E+00   0.243E-02 -.370E-02 0.101E-01
   -.432E+01 0.283E+01 0.357E+03   0.413E+01 -.250E+01 -.355E+03   0.207E+00 -.334E+00 -.144E+01   -.342E-03 0.667E-02 0.142E-01
   0.183E+02 -.306E+01 0.250E+04   -.183E+02 0.338E+01 -.250E+04   -.127E+00 -.139E+00 -.262E+00   0.148E-02 -.349E-02 0.408E-02
   -.211E+03 0.655E+02 -.169E+04   0.227E+03 -.714E+02 0.172E+04   -.154E+02 0.589E+01 -.211E+02   0.275E-02 0.248E-02 -.344E-02
   0.260E+02 -.440E+02 -.167E+04   -.283E+02 0.485E+02 0.170E+04   0.229E+01 -.455E+01 -.283E+02   -.205E-03 -.380E-02 0.303E-02
   -.361E+02 -.200E+02 -.166E+04   0.369E+02 0.222E+02 0.169E+04   -.739E+00 -.217E+01 -.280E+02   0.422E-02 0.254E-02 0.140E-02
   0.626E+02 0.306E+01 -.165E+04   -.684E+02 -.514E+01 0.168E+04   0.586E+01 0.208E+01 -.280E+02   -.477E-03 -.508E-02 -.311E-02
   -.256E+02 0.125E+03 -.162E+04   0.307E+02 -.131E+03 0.164E+04   -.510E+01 0.609E+01 -.191E+02   -.125E-03 0.425E-02 0.114E-02
   -.679E+02 -.239E+03 -.169E+04   0.697E+02 0.256E+03 0.171E+04   -.184E+01 -.173E+02 -.201E+02   -.177E-02 -.581E-03 0.219E-03
   0.109E+03 0.109E+03 -.171E+04   -.116E+03 -.116E+03 0.173E+04   0.741E+01 0.683E+01 -.249E+02   -.285E-02 0.412E-02 -.118E-02
   0.846E+02 -.922E+02 -.165E+04   -.876E+02 0.102E+03 0.167E+04   0.308E+01 -.102E+02 -.178E+02   0.138E-02 -.123E-02 -.675E-03
   -.750E+02 0.123E+01 -.188E+04   0.744E+02 -.153E+01 0.188E+04   0.556E+00 0.315E+00 -.114E+01   -.500E-04 -.113E-01 -.156E-02
   0.581E+01 -.144E+02 0.228E+04   -.604E+01 0.145E+02 -.228E+04   0.147E+00 -.799E-01 -.195E+01   0.199E-02 -.563E-03 0.344E-02
   0.115E+02 -.140E+01 0.229E+04   -.117E+02 0.166E+01 -.229E+04   -.298E-01 -.183E+00 -.175E+01   0.164E-02 -.458E-03 0.299E-02
   -.291E+02 0.205E+02 -.166E+04   0.284E+02 -.203E+02 0.167E+04   0.694E+00 -.197E+00 -.217E+01   0.123E-02 -.104E-02 0.272E-02
   -.714E+00 0.144E+02 0.229E+04   0.406E+00 -.148E+02 -.228E+04   0.191E+00 0.238E+00 -.129E+01   0.157E-02 0.353E-02 0.469E-02
   -.283E+02 -.606E+02 -.160E+04   0.282E+02 0.600E+02 0.160E+04   0.880E-01 0.599E+00 -.687E+00   0.547E-02 0.927E-02 0.468E-02
   0.164E+02 0.222E+02 -.258E+04   -.154E+02 -.209E+02 0.258E+04   -.998E+00 -.138E+01 0.272E-01   -.131E-01 0.429E-02 -.618E-03
   -.342E+01 0.106E+03 -.157E+04   0.396E+01 -.106E+03 0.157E+04   -.526E+00 -.567E+00 -.697E+00   -.425E-02 -.388E-02 0.283E-02
   -.622E+01 -.487E+01 0.226E+04   0.581E+01 0.527E+01 -.226E+04   0.369E+00 -.227E+00 -.170E+01   0.278E-03 -.447E-02 0.290E-02
   -.418E+02 -.775E+01 0.287E+03   0.419E+02 0.818E+01 -.287E+03   -.830E-01 -.430E+00 -.494E+00   -.259E-02 -.424E-02 0.970E-02
   -.542E+02 0.110E+02 -.146E+04   0.544E+02 -.117E+02 0.146E+04   -.213E+00 0.600E+00 -.258E+01   0.970E-02 0.571E-02 -.308E-02
   -.457E+01 0.423E+02 0.218E+03   0.470E+01 -.419E+02 -.218E+03   -.120E+00 -.403E+00 -.313E+00   -.192E-02 -.211E-02 0.776E-02
   0.689E+01 0.127E+02 0.229E+04   -.668E+01 -.129E+02 -.229E+04   -.152E+00 0.122E+00 -.124E+01   -.138E-04 0.393E-02 0.417E-02
   0.316E+01 -.119E+02 0.319E+03   -.296E+01 0.117E+02 -.318E+03   -.195E+00 0.220E+00 -.366E+00   -.552E-03 -.108E-03 0.922E-02
   0.914E+02 -.322E+02 -.154E+04   -.911E+02 0.317E+02 0.154E+04   -.312E+00 0.414E+00 -.428E+00   -.662E-02 -.474E-02 0.855E-04
   -.401E+02 -.481E+02 0.289E+03   0.399E+02 0.476E+02 -.289E+03   0.235E+00 0.446E+00 0.790E-01   -.804E-03 0.311E-02 0.767E-02
   -.142E+02 -.627E+01 0.228E+04   0.148E+02 0.602E+01 -.227E+04   -.397E+00 0.167E+00 -.150E+01   -.228E-02 0.185E-03 0.155E-02
   0.614E+02 -.937E+02 -.157E+04   -.609E+02 0.931E+02 0.157E+04   -.554E+00 0.616E+00 0.216E+00   -.736E-03 -.849E-02 0.783E-02
   0.117E+02 0.168E+03 -.204E+04   -.121E+02 -.166E+03 0.204E+04   0.493E+00 -.164E+01 -.206E+01   -.121E-01 0.403E-02 0.180E-03
   -.344E+01 -.168E+02 0.309E+03   0.365E+01 0.167E+02 -.308E+03   -.202E+00 0.144E+00 -.142E+01   -.263E-02 -.362E-02 0.555E-02
   0.169E+02 0.199E+02 0.227E+04   -.169E+02 -.201E+02 -.227E+04   0.453E-01 0.564E-01 -.178E+01   -.111E-03 0.134E-02 0.461E-02
   0.344E+02 0.634E+02 0.334E+03   -.342E+02 -.635E+02 -.333E+03   -.226E+00 0.106E+00 -.261E+00   -.143E-02 -.155E-02 0.689E-02
   -.147E+02 0.166E+02 0.309E+03   0.148E+02 -.170E+02 -.309E+03   -.999E-01 0.359E+00 0.230E+00   0.858E-04 -.946E-02 0.845E-02
   0.113E+02 0.504E+01 0.334E+03   -.118E+02 -.470E+01 -.333E+03   0.460E+00 -.335E+00 -.120E+01   0.338E-02 -.416E-02 0.117E-01
   0.431E+01 0.164E+02 0.207E+03   0.359E-12 -.719E-12 0.239E-11   -.427E+01 -.164E+02 -.207E+03   -.409E-01 0.123E-01 0.242E+00

 POSITION                                       TOTAL-FORCE (eV/Angst)
      1.37532      0.79404     10.00000         0.362521      0.188002     -0.118610
      8.25194      7.94043     10.00000         0.171143      0.050582     -0.089055
      5.50129      7.94043     10.00000        -0.248042     -0.344030     -0.243920
     10.97985      6.41111     13.36585         0.005062     -0.001529     -0.002526
     12.37790      5.55830     10.00000         0.212756      0.066810     -0.221325
      9.70154      2.35965     14.76294         0.008871     -0.013385      0.004744
     12.30046      3.99513     12.49394         0.005295      0.002860     -0.001749
     11.00258      3.17617     10.00000        -0.031809      0.073732     -0.166987
     13.77461      9.42668     14.72113         0.004418     -0.006385     -0.000045
      9.62726      0.79404     10.00000        -0.274814      0.028089     -0.148477
     13.67130      6.40151     12.42359         0.000402      0.000806     -0.003361
      9.40915      7.11893     15.93344         0.009551      0.004835      0.003581
     13.70827      4.79084     14.83894         0.007829     -0.001347      0.000302
     11.00258      7.94043     10.00000        -0.039041      0.011433      0.011892
      8.28494      4.70981     14.83324         0.009662     -0.011865      0.004535
      8.30691      6.37367     12.46810         0.004259     -0.001994      0.008295
      9.62726      5.55830     10.00000        -0.152531     -0.081601     -0.119254
      6.94475      2.24087     14.89245         0.010299     -0.007881      0.004123
      6.89830      3.95247     12.35456         0.000081      0.001529     -0.001827
      4.07060      3.95322     12.39673         0.000682     -0.002381      0.009123
     10.97882      9.25332     14.84533         0.010669     -0.000801      0.000709
      5.45555      1.54318     12.46907         0.001399     -0.001567     -0.004806
      5.49164      6.36336     12.42357         0.008226      0.000178      0.005070
      6.87661      0.79404     10.00000        -0.077824      0.180723     -0.191524
     14.82079      6.92408     16.66822         0.005955      0.000433      0.000995
      2.66505      1.75753     16.15057        -0.000316      0.006676      0.004654
      5.53600      3.31118     16.09542         0.004506      0.003197      0.001677
      6.63613      8.58880     16.10344         0.001018     -0.003260      0.004410
     12.58811      5.45290     16.55285         0.012321     -0.002809     -0.001846
     13.43102      9.29712     16.71794         0.002295      0.001551      0.007043
      9.47476      5.11469     16.61423         0.005158      0.001478     -0.004664
     11.08474      8.06208     16.73543         0.010037     -0.009885      0.000787
      8.27667      9.45697     15.31440        -0.005472      0.005022      0.011820
      8.25194      3.17617     10.00000        -0.085005      0.044508      0.144025
      5.50129      3.17617     10.00000        -0.146181      0.084836      0.201166
      4.14752      2.34850     14.97049         0.011463     -0.004886      0.001270
      6.87661      5.55830     10.00000        -0.114926     -0.159872      0.048314
      5.52871      4.77373     14.74059         0.006344      0.000058     -0.001837
     12.94996      7.42241     16.66224         0.000297     -0.005888      0.004135
      6.95239      7.10609     14.79551         0.014354      0.008283      0.006472
      4.12597      0.79404     10.00000        -0.040324      0.167072      0.300544
      6.87894      8.75076     12.42743         0.005158     -0.002807      0.003163
      4.13844      7.09581     14.80030         0.000018     -0.006093     -0.012242
      9.58756      8.72315     12.52158         0.004224     -0.002260      0.005224
      4.12597      5.55830     10.00000         0.057166     -0.052120      0.132294
      8.24352      1.57736     12.41750         0.003776     -0.005865     -0.002049
      1.38836      2.27919     14.73057         0.007509     -0.002020      0.005488
      9.63934      3.99932     12.43809         0.002153     -0.007395     -0.001366
      2.75065      3.17617     10.00000         0.175046     -0.082198      0.207290
      5.50942      9.47092     14.73420         0.002181     -0.000888     -0.011495
     11.08589      4.55267     15.63472         0.010667     -0.002708      0.004031
     10.98840      1.57918     12.42853         0.003415     -0.002679      0.003785
     13.75323      7.94043     10.00000         0.036509     -0.119371      0.203763
     12.32191      8.70865     12.38372         0.006431      0.002241      0.005377
      2.72958      1.55411     12.39735        -0.003178      0.009456     -0.006043
     15.10190      8.74316     12.41770        -0.001664      0.003380     -0.005093
    total drift:                               -0.006695     -0.020311      0.013641

  FREE ENERGIE OF THE ION-ELECTRON SYSTEM (eV)
  free  energy   TOTEN  =      -232.93945065 eV

  energy  without entropy=     -232.69804343  energy(sigma->0) =     -232.81874704

 d Force = 0.2839424E-03[ 0.141E-03, 0.426E-03]  d Energy = 0.2858059E-03-0.186E-05
 d Force = 0.2316563E+01[ 0.231E+01, 0.232E+01]  d Ewald  = 0.2316563E+01-0.309E-06

 stress matrix after NEB project (eV)
      0.00000      0.00000      0.00000
      0.00000      0.00000      0.00000
      0.00000      0.00000      0.00000
  FORCES: max atom, RMS     0.017791    0.008373
  FORCE total and by dimension    0.062657    0.014354
  Stress total and by dimension    0.000000    0.000000
 Steepest descent step on ions:
 trial-energy change:   -0.000286  1 .order   -0.000284   -0.000426   -0.000141
  (g-gl).g = 0.426E-03      g.g   = 0.426E-03  gl.gl    = 0.000E+00
 g(Force)  = 0.426E-03   g(Stress)= 0.000E+00 ortho     = 0.000E+00
 gamma     =   0.00000
 trial     =   1.00000
 opt step  =   1.49632  (harmonic =   1.49632) maximal distance =0.00181133
 next E    =  -232.939484   (d E  =  -0.00032)

 reached required accuracy - stopping structural energy minimisation