 vasp.5.4.1 24Jun15 (build Mar 14 2019 10:18:33) complex

 executed on INTEL-19.0.2+OPENMPI date 2023.03.12  18:14:57

 INCAR:
 POTCAR:    PAW_PBE Au 04Oct2007
 POTCAR:    PAW_PBE O 08Apr2002
 POTCAR:    PAW_PBE Pd 04Jan2005
 POTCAR:    PAW_PBE Au 04Oct2007

 POTCAR:    PAW_PBE O 08Apr2002

 POTCAR:    PAW_PBE Pd 04Jan2005

 Optimization of the real space projectors (new method)

 maximal supplied QI-value         = 15.12
 optimisation between [QCUT,QGAM] = [ 10.13, 20.41] = [ 28.73,116.64] Ry
 Optimized for a Real-space Cutoff    1.51 Angstroem

   l    n(q)    QCUT    max X(q) W(low)/X(q) W(high)/X(q)  e(spline)
   2      8    10.129    60.898    0.46E-03    0.46E-03    0.14E-06
   2      8    10.129    58.894    0.47E-03    0.47E-03    0.14E-06
   0      9    10.129   109.617    0.16E-03    0.11E-03    0.54E-07
   0      9    10.129    75.026    0.15E-03    0.11E-03    0.52E-07
   1      9    10.129    16.344    0.96E-04    0.15E-03    0.14E-06
   1      9    10.129    10.160    0.81E-04    0.12E-03    0.11E-06
 Optimization of the real space projectors (new method)

[...]

   l    n(q)    QCUT    max X(q) W(low)/X(q) W(high)/X(q)  e(spline)
   0      8    10.150    20.381    0.22E-03    0.32E-03    0.29E-06
   0      8    10.150    15.268    0.23E-03    0.35E-03    0.30E-06
   1      8    10.150     5.964    0.46E-03    0.53E-03    0.21E-06
   1      8    10.150     5.382    0.38E-03    0.45E-03    0.19E-06
 Optimization of the real space projectors (new method)

 maximal supplied QI-value         = 14.36
 optimisation between [QCUT,QGAM] = [ 10.20, 20.39] = [ 29.12,116.47] Ry
 Optimized for a Real-space Cutoff    1.51 Angstroem

   l    n(q)    QCUT    max X(q) W(low)/X(q) W(high)/X(q)  e(spline)
   2      8    10.197    59.108    0.26E-03    0.14E-03    0.96E-07
   2      8    10.197    58.101    0.27E-03    0.14E-03    0.98E-07
   0      9    10.197   102.235    0.54E-04    0.60E-05    0.72E-07
   0      9    10.197    58.388    0.52E-04    0.60E-05    0.68E-07
   1      9    10.197    22.191    0.18E-03    0.25E-03    0.79E-07
   1      9    10.197    15.590    0.15E-03    0.21E-03    0.69E-07
  PAW_PBE Au 04Oct2007                  :
  PAW_PBE O 08Apr2002                   :
  PAW_PBE Pd 04Jan2005                  :

 POSCAR: Au  O Pd
  positions in cartesian coordinates
 exchange correlation table for  LEXCH =        8
   RHO(1)=    0.500       N(1)  =     2000
   RHO(2)=  100.500       N(2)  =     4000

 VTST: version 3.2, (02/03/18)

 CHAIN: initializing optimizer

 OPT: Using VASP Conjugate-Gradient optimizer
 CHAIN: Read ICHAIN            0

 POSCAR: Au  O Pd
  positions in cartesian coordinates

 ion  position               nearest neighbor table
   1  0.083  0.083  0.382-  53 2.75  49 2.75  36 2.75  23 2.75   2 2.75   8 2.75  10 2.75  11 2.75
                            21 2.75
   2  0.083  0.833  0.382-  36 2.75  14 2.75   3 2.75   1 2.75  21 2.75  24 2.75   6 2.75   5 2.75
                            10 2.75
   3  0.917  0.917  0.468-   5 2.75   2 2.75  21 2.75  14 2.75  22 2.75  39 2.75  49 2.75   9 2.75
                            36 2.75  56 2.75  50 2.75  51 2.75
   4  0.833  0.583  0.382-  39 2.75  35 2.75   7 2.75  19 2.75  23 2.75   5 2.75   8 2.75   6 2.75
                            18 2.75
   5  0.833  0.833  0.382-   3 2.75   9 2.75  39 2.75   4 2.75  15 2.75  21 2.75   6 2.75   2 2.75
                            19 2.75
   6  0.083  0.583  0.382-  14 2.75  12 2.75  39 2.75   2 2.75  13 2.75   5 2.75   8 2.75  24 2.75
                             4 2.75
   7  0.917  0.417  0.468-  23 2.75   8 2.75   4 2.75  35 2.75  39 2.75  49 2.75  53 2.75  12 2.75
                            48 2.75  43 2.75  46 2.75  33 2.75
   8  0.083  0.333  0.382-  12 2.75   7 2.75  53 2.75   1 2.75  11 2.75   4 2.75   6 2.75  23 2.75
                            13 2.75
   9  0.667  0.917  0.468-  19 2.75  15 2.75   5 2.75  16 2.75  22 2.75  35 2.75  39 2.75  20 2.75
                             3 2.75  38 2.75  40 2.75  50 2.75
  10  0.333  0.833  0.382-  20 2.75  36 2.75  55 2.75   1 2.75  24 2.75  11 2.75  18 2.75   2 2.75
                            19 2.75
  11  0.333  0.083  0.382-  16 2.75  20 2.75  53 2.75   8 2.75  19 2.75  10 2.75  13 2.75   1 2.75
                            15 2.75
  12  0.167  0.417  0.468-   8 2.75   6 2.75  13 2.75  14 2.75  16 2.75  39 2.75  53 2.75  41 2.75
                             7 2.75  44 2.75  33 2.75  34 2.75
  13  0.333  0.333  0.382-  41 2.75  16 2.75  12 2.75  15 2.75  11 2.75  24 2.75   6 2.75   8 2.75
                            17 2.75
  14  0.167  0.667  0.468-   6 2.75   2 2.75  24 2.75  12 2.75   3 2.75  36 2.75  41 2.75  39 2.75
                            55 2.75  34 2.75  56 2.75  37 2.75
  15  0.583  0.083  0.382-  22 2.75  16 2.75   9 2.75   5 2.75  17 2.75  19 2.75  13 2.75  21 2.75
                            11 2.75
  16  0.417  0.167  0.468-  11 2.75  13 2.75  15 2.75   9 2.75  12 2.75  20 2.75  41 2.75  22 2.75
                            53 2.75  40 2.75  44 2.75  42 2.75
  17  0.583  0.333  0.382-  48 2.75  41 2.75  22 2.75  15 2.75  24 2.75  18 2.75  21 2.75  23 2.75
                            13 2.75
  18  0.583  0.583  0.382-  35 2.75  48 2.75  55 2.75  23 2.75  10 2.75  17 2.75  19 2.75  24 2.75
                             4 2.75
  19  0.583  0.833  0.382-   9 2.75  20 2.75  35 2.75  15 2.75  18 2.75   4 2.75  11 2.75  10 2.75
                             5 2.75
  20  0.417  0.917  0.468-  10 2.75  11 2.75  19 2.75  16 2.75  35 2.75  53 2.75  55 2.75   9 2.75
                            36 2.75  52 2.75  54 2.75  40 2.75
  21  0.833  0.083  0.382-  49 2.75  22 2.75   3 2.75  17 2.75   2 2.75  23 2.75   5 2.75   1 2.75
                            15 2.75
  22  0.667  0.167  0.468-  15 2.75  17 2.75  21 2.75   9 2.75   3 2.75  41 2.75  48 2.75  16 2.75
                            49 2.75  50 2.75  42 2.75  47 2.75
  23  0.833  0.333  0.382-   7 2.75  48 2.75  49 2.75  18 2.75  21 2.75   4 2.75   1 2.75   8 2.75
                            17 2.75
  24  0.333  0.583  0.382-  55 2.75  41 2.75  14 2.75   2 2.75  17 2.75  10 2.75  13 2.75   6 2.75
                            18 2.75
  25  0.083  0.083  0.618-  43 2.33  54 2.33  51 2.33
  26  0.583  0.833  0.618-  40 2.33  38 2.33  52 2.33
  27  0.333  0.083  0.618-  44 2.33  40 2.33  54 2.33
  28  0.083  0.833  0.618-  51 2.33  37 2.33  56 2.33
  29  0.833  0.083  0.618-  47 2.33  51 2.33  50 2.33
  30  0.333  0.583  0.618-  37 2.33  45 2.33  34 2.33
  31  0.333  0.333  0.618-  34 2.33  42 2.33  44 2.33
  32  0.583  0.333  0.618-  45 2.33  47 2.33  42 2.33
  33  0.000  0.500  0.553-  38 2.75  43 2.75  44 2.75  56 2.75  46 2.75  34 2.75  39 2.75  12 2.75
                             7 2.75
  34  0.250  0.500  0.553-  31 2.33  30 2.33  37 2.75  42 2.75  44 2.75  56 2.75  45 2.75  33 2.75
                            14 2.75  41 2.75  12 2.75
  35  0.667  0.667  0.468-  18 2.75   4 2.75  19 2.75   7 2.75   9 2.75  20 2.75  48 2.75  39 2.75
                            55 2.75  46 2.75  52 2.75  38 2.75
  36  0.167  0.917  0.468-   2 2.75   1 2.75  10 2.75  14 2.75  49 2.75  53 2.75  55 2.75  20 2.75
                             3 2.75  37 2.75  51 2.75  54 2.75
  37  0.250  0.750  0.553-  30 2.33  28 2.33  34 2.75  45 2.75  51 2.75  54 2.75  52 2.75  56 2.75
                            36 2.75  55 2.75  14 2.75
  38  0.750  0.750  0.553-  26 2.33  33 2.75  40 2.75  46 2.75  50 2.75  52 2.75  56 2.75   9 2.75
                            39 2.75  35 2.75
  39  0.917  0.667  0.468-   4 2.75   5 2.75   6 2.75   3 2.75   7 2.75   9 2.75  12 2.75  14 2.75
                            35 2.75  33 2.75  38 2.75  56 2.75
  40  0.500  0.000  0.553-  26 2.33  27 2.33  38 2.75  42 2.75  44 2.75  52 2.75  50 2.75  54 2.75
                            16 2.75   9 2.75  20 2.75
  41  0.417  0.417  0.468-  13 2.75  17 2.75  24 2.75  14 2.75  22 2.75  16 2.75  55 2.75  48 2.75
                            12 2.75  42 2.75  34 2.75  45 2.75
  42  0.500  0.250  0.553-  31 2.33  32 2.33  34 2.75  40 2.75  45 2.75  50 2.75  47 2.75  44 2.75
                            41 2.75  22 2.75  16 2.75
  43  0.000  0.250  0.553-  25 2.33  33 2.75  46 2.75  51 2.75  54 2.75  44 2.75  47 2.75   7 2.75
                            53 2.75  49 2.75
  44  0.250  0.250  0.553-  27 2.33  31 2.33  33 2.75  34 2.75  40 2.75  54 2.75  43 2.75  42 2.75
                            12 2.75  16 2.75  53 2.75
  45  0.500  0.500  0.553-  32 2.33  30 2.33  37 2.75  42 2.75  47 2.75  52 2.75  34 2.75  46 2.75
                            55 2.75  48 2.75  41 2.75
  46  0.750  0.500  0.553-  38 2.75  43 2.75  47 2.75  52 2.75  33 2.75  45 2.75  35 2.75   7 2.75
                            48 2.75
  47  0.750  0.250  0.553-  29 2.33  32 2.33  45 2.75  46 2.75  50 2.75  51 2.75  42 2.75  43 2.75
                            48 2.75  49 2.75  22 2.75
  48  0.667  0.417  0.468-  17 2.75  18 2.75  23 2.75  22 2.75  35 2.75  49 2.75  55 2.75   7 2.75
                            41 2.75  47 2.75  45 2.75  46 2.75
  49  0.917  0.167  0.468-  21 2.75   1 2.75  23 2.75   3 2.75   7 2.75  36 2.75  48 2.75  22 2.75
                            53 2.75  51 2.75  47 2.75  43 2.75
  50  0.750  0.000  0.553-  29 2.33  38 2.75  42 2.75  47 2.75  56 2.75  51 2.75  40 2.75  22 2.75
                             3 2.75   9 2.75
  51  0.000  0.000  0.553-  28 2.33  29 2.33  25 2.33  37 2.75  43 2.75  47 2.75  56 2.75  54 2.75
                            50 2.75  49 2.75  36 2.75   3 2.75
  52  0.500  0.750  0.553-  26 2.33  40 2.75  45 2.75  46 2.75  54 2.75  37 2.75  38 2.75  20 2.75
                            35 2.75  55 2.75
  53  0.167  0.167  0.468-   1 2.75   8 2.75  11 2.75   7 2.75  12 2.75  20 2.75  36 2.75  16 2.75
                            49 2.75  54 2.75  43 2.75  44 2.75
  54  0.250  0.000  0.553-  25 2.33  27 2.33  37 2.75  43 2.75  44 2.75  52 2.75  51 2.75  40 2.75
                            53 2.75  20 2.75  36 2.75
  55  0.417  0.667  0.468-  24 2.75  18 2.75  10 2.75  20 2.75  36 2.75  41 2.75  48 2.75  35 2.75
                            14 2.75  45 2.75  37 2.75  52 2.75
  56  0.000  0.750  0.553-  28 2.33  33 2.75  34 2.75  50 2.75  51 2.75  37 2.75  38 2.75   3 2.75
                            14 2.75  39 2.75

  LATTYP: Found a hexagonal cell.
 ALAT       =    11.0025815153
 C/A-ratio  =     2.3805127059

  Lattice vectors:

 A1 = (   5.5012907576,  -9.5285150994,   0.0000000000)
 A2 = ( -11.0025815153,   0.0000000000,   0.0000000000)
 A3 = (   0.0000000000,   0.0000000000, -26.1917850943)

Analysis of symmetry for initial positions (statically):
 Subroutine PRICEL returns:
 Original cell was already a primitive cell.

 Routine SETGRP: Setting up the symmetry group for a
 hexagonal supercell.

 Subroutine GETGRP returns: Found  1 space group operations
 (whereof  1 operations were pure point group operations)
 out of a pool of 24 trial point group operations.

The static configuration has the point symmetry C_1 .

Analysis of symmetry for dynamics (positions and initial velocities):
 Subroutine PRICEL returns:
 Original cell was already a primitive cell.

[...]

The dynamic configuration has the point symmetry C_1 .

[...]
      7     -20.0391      2.00000
      8     -19.9580      2.00000
      9      -9.3276      2.00000
     10      -8.8428      2.00000
     11      -8.7715      2.00000
     12      -8.2185      2.00000
     13      -7.9715      2.00000
     14      -7.9285      2.00000
     15      -7.8596      2.00000
     16      -7.8390      2.00000
     17      -7.8255      2.00000
     18      -7.7993      2.00000
     19      -7.7798      2.00000
     20      -7.7274      2.00000
     21      -7.7060      2.00000
     22      -7.6851      2.00000
     23      -7.6275      2.00000
     24      -7.6082      2.00000
     25      -7.5797      2.00000
     26      -7.5500      2.00000
     27      -7.5374      2.00000
     28      -7.5002      2.00000
     29      -7.4372      2.00000
     30      -7.4055      2.00000
     31      -7.3938      2.00000
     32      -7.3242      2.00000
     33      -7.2887      2.00000
     34      -7.2506      2.00000
     35      -7.1894      2.00000
     36      -7.1684      2.00000
     37      -7.1284      2.00000
     38      -7.1143      2.00000
     39      -7.0967      2.00000
     40      -7.0797      2.00000
     41      -7.0663      2.00000
     42      -7.0272      2.00000
     43      -7.0009      2.00000
     44      -6.9619      2.00000
     45      -6.9448      2.00000
     46      -6.9016      2.00000
     47      -6.8843      2.00000
     48      -6.8414      2.00000
     49      -6.8044      2.00000
     50      -6.7744      2.00000
     51      -6.7563      2.00000
     52      -6.7411      2.00000
     53      -6.7214      2.00000
     54      -6.7032      2.00000
     55      -6.6683      2.00000
     56      -6.6509      2.00000
     57      -6.6214      2.00000
     58      -6.6045      2.00000
     59      -6.5819      2.00000
     60      -6.5753      2.00000
[...]
    322       3.9878      0.00000
    323       4.0639      0.00000
    324       4.1050      0.00000
    325       4.1992      0.00000
    326       4.2890      0.00000
    327       4.3653      0.00000
    328       4.5032      0.00000
    329       4.6973      0.00000
    330       4.7226      0.00000
    331       4.8585      0.00000
    332       4.9158      0.00000
    333       4.9694      0.00000
    334       5.0054      0.00000
    335       5.0522      0.00000
    336       5.0834      0.00000

 soft charge-density along one line, spin component           1
         0         1         2         3         4         5         6         7         8         9
 total charge-density along one line

------------------------ aborting loop because EDIFF is reached ----------------------------------------

 VOLUME and BASIS-vectors are now :
  energy-cutoff  :      400.00
  volume of cell :     2745.90
      direct lattice vectors                 reciprocal lattice vectors
    11.002581515  0.000000000  0.000000000     0.090887761 -0.052474073  0.000000000
     5.501290758  9.528515099  0.000000000     0.000000000  0.104948147  0.000000000
     0.000000000  0.000000000 26.191785094     0.000000000  0.000000000  0.038179910

  length of vectors
    11.002581515 11.002581515 26.191785094     0.104948147  0.104948147  0.038179910

 FORCES acting on ions
    electron-ion (+dipol)            ewald-force                    non-local-force                 convergence-correction
   -.930E-01 0.535E+01 0.245E+04   0.747E-01 -.553E+01 -.245E+04   -.612E-02 0.108E+00 -.257E+00   -.325E-03 0.360E-03 0.254E-02
   -.505E+01 -.201E+01 0.245E+04   0.530E+01 0.223E+01 -.245E+04   -.136E+00 -.179E+00 0.363E+00   0.919E-03 0.464E-03 0.159E-02
   -.165E+01 0.652E+00 0.217E+03   0.241E+01 -.475E+00 -.216E+03   -.755E+00 -.181E+00 -.930E+00   0.374E-02 0.936E-03 -.336E-03
   -.114E+02 -.302E+01 0.248E+04   0.116E+02 0.317E+01 -.248E+04   -.489E-01 -.877E-01 -.310E+00   -.116E-02 -.896E-03 0.186E-02
   -.667E+01 -.568E+01 0.246E+04   0.680E+01 0.547E+01 -.246E+04   -.713E-01 0.216E+00 0.382E+00   0.231E-03 -.240E-03 0.277E-03
   -.821E+01 0.450E+01 0.246E+04   0.775E+01 -.430E+01 -.246E+04   0.396E+00 -.194E+00 0.327E+00   0.125E-03 -.254E-03 0.569E-03
   -.991E+01 0.346E+01 0.283E+03   0.936E+01 -.376E+01 -.281E+03   0.549E+00 0.300E+00 -.192E+01   -.454E-02 -.304E-02 0.103E-01
   -.171E+02 0.947E+01 0.246E+04   0.172E+02 -.970E+01 -.246E+04   0.827E-01 0.157E+00 0.252E+00   -.109E-02 -.375E-03 0.160E-02
   0.387E+01 -.411E+01 0.228E+03   -.357E+01 0.366E+01 -.226E+03   -.302E+00 0.462E+00 -.186E+01   0.709E-04 -.338E-02 -.358E-02
   0.106E+02 -.580E+01 0.246E+04   -.109E+02 0.556E+01 -.246E+04   0.196E+00 0.183E+00 0.292E+00   -.516E-03 -.218E-03 0.171E-02
   -.614E+01 -.105E+02 0.245E+04   0.615E+01 0.108E+02 -.245E+04   0.637E-01 -.181E+00 0.552E+00   -.117E-02 0.140E-03 0.696E-03
   -.776E+01 0.337E-01 0.162E+03   0.812E+01 -.384E+00 -.160E+03   -.358E+00 0.350E+00 -.167E+01   -.212E-02 -.929E-03 -.537E-03
   0.173E+01 0.903E+01 0.244E+04   -.168E+01 -.909E+01 -.244E+04   -.368E-01 -.340E-01 0.542E+00   0.164E-03 0.459E-03 0.568E-03
   0.671E+01 0.129E+02 0.203E+03   -.625E+01 -.133E+02 -.202E+03   -.462E+00 0.325E+00 -.961E+00   0.461E-02 0.204E-02 0.805E-03
   0.620E+01 -.116E+02 0.245E+04   -.626E+01 0.115E+02 -.245E+04   0.370E-02 0.162E+00 0.110E+01   0.327E-03 0.531E-03 -.503E-04
   0.467E+01 -.111E+02 0.104E+03   -.464E+01 0.114E+02 -.103E+03   -.188E-01 -.230E+00 -.145E+01   -.160E-02 0.477E-03 -.114E-01
   0.108E+02 0.877E+01 0.246E+04   -.106E+02 -.864E+01 -.246E+04   -.249E+00 -.143E+00 0.890E-01   0.130E-02 0.102E-02 0.222E-02
   0.138E+02 0.431E+00 0.247E+04   -.138E+02 -.359E+00 -.247E+04   -.102E+00 -.769E-01 -.249E+00   0.162E-03 -.103E-02 0.312E-02
   0.115E+01 -.160E+02 0.247E+04   -.114E+01 0.159E+02 -.247E+04   -.134E-02 0.242E+00 -.174E+00   -.615E-03 -.119E-02 0.686E-03
   -.383E+01 -.115E+02 0.229E+03   0.265E+01 0.114E+02 -.228E+03   0.117E+01 0.638E-01 -.115E+01   -.414E-02 -.226E-02 -.992E-03
   -.268E+00 -.502E+00 0.245E+04   0.322E+00 0.623E+00 -.245E+04   -.527E-01 -.618E-01 0.508E+00   0.117E-02 0.966E-03 0.151E-02
   0.760E+01 -.145E+01 0.182E+03   -.734E+01 0.266E+01 -.181E+03   -.255E+00 -.121E+01 -.904E+00   0.452E-02 0.265E-02 -.139E-02
   0.492E+01 0.166E+02 0.247E+04   -.523E+01 -.167E+02 -.247E+04   0.166E+00 -.446E-01 0.163E+00   -.386E-03 0.260E-03 0.333E-02
   0.622E+01 0.652E+00 0.246E+04   -.585E+01 -.555E+00 -.246E+04   -.285E+00 -.844E-01 0.354E-01   0.857E-03 -.707E-05 0.161E-02
   -.547E+01 -.561E+02 -.171E+04   0.645E+01 0.569E+02 0.174E+04   -.978E+00 -.845E+00 -.284E+02   -.291E-02 0.544E-02 -.354E-02
   -.228E+02 0.778E+02 -.173E+04   0.217E+02 -.795E+02 0.176E+04   0.118E+01 0.164E+01 -.282E+02   -.105E-03 -.776E-02 -.744E-03
   0.829E+00 0.166E+02 -.172E+04   -.968E+00 -.163E+02 0.175E+04   0.145E+00 -.291E+00 -.285E+02   -.574E-02 0.469E-03 0.383E-02
   0.369E+02 0.363E+02 -.171E+04   -.368E+02 -.386E+02 0.174E+04   -.989E-01 0.227E+01 -.275E+02   0.182E-02 0.873E-03 0.392E-03
   0.321E+02 0.384E+01 -.173E+04   -.339E+02 -.222E+01 0.176E+04   0.175E+01 -.162E+01 -.284E+02   0.614E-02 0.175E-02 0.112E-02
   -.408E+02 -.255E+02 -.171E+04   0.426E+02 0.247E+02 0.174E+04   -.178E+01 0.828E+00 -.288E+02   0.350E-02 0.347E-02 -.121E-02
   0.341E+02 -.120E+02 -.175E+04   -.322E+02 0.108E+02 0.178E+04   -.192E+01 0.118E+01 -.287E+02   -.177E-02 0.328E-02 0.428E-02
   -.563E+02 -.325E+02 -.172E+04   0.552E+02 0.343E+02 0.175E+04   0.103E+01 -.175E+01 -.290E+02   0.828E-02 0.500E-02 -.589E-03
   0.470E+02 -.242E+02 -.190E+04   -.471E+02 0.245E+02 0.190E+04   0.131E+00 -.337E+00 0.180E+01   -.605E-02 -.361E-02 0.171E-02
   0.137E+03 -.613E+02 -.190E+04   -.137E+03 0.602E+02 0.190E+04   0.574E-01 0.113E+01 -.164E+01   0.631E-02 0.507E-02 -.612E-02
   -.281E+01 -.218E+01 0.290E+03   0.264E+01 0.181E+01 -.289E+03   0.173E+00 0.372E+00 -.870E+00   -.357E-03 -.545E-02 0.245E-02
   0.869E+00 -.102E+02 0.200E+03   -.693E+00 0.103E+02 -.198E+03   -.175E+00 -.145E+00 -.215E+01   -.201E-02 -.729E-03 -.134E-02
   -.865E+02 -.454E+02 -.169E+04   0.871E+02 0.451E+02 0.170E+04   -.561E+00 0.298E+00 -.905E+00   0.325E-03 -.288E-02 0.229E-03
   -.801E+02 0.975E+02 -.178E+04   0.802E+02 -.978E+02 0.178E+04   -.115E+00 0.380E+00 -.288E+00   -.449E-03 -.450E-02 0.404E-02
   -.702E+01 0.771E+01 0.234E+03   0.666E+01 -.724E+01 -.231E+03   0.363E+00 -.462E+00 -.234E+01   -.271E-02 -.643E-03 0.173E-02
   -.857E+02 0.454E+01 -.186E+04   0.857E+02 -.419E+01 0.186E+04   0.195E-01 -.353E+00 -.146E+01   -.264E-02 -.323E-02 -.832E-02
   0.177E+02 0.609E+01 0.216E+03   -.170E+02 -.590E+01 -.215E+03   -.646E+00 -.197E+00 -.138E+00   0.372E-02 0.323E-02 -.110E-02
   -.116E+01 0.880E+02 -.187E+04   0.713E+00 -.876E+02 0.187E+04   0.446E+00 -.398E+00 -.121E+01   0.337E-02 0.891E-02 -.137E-01
   0.424E+01 -.158E+03 -.179E+04   -.398E+01 0.157E+03 0.179E+04   -.251E+00 0.464E+00 -.336E+00   -.520E-02 -.567E-03 0.492E-02
   0.124E+03 -.847E+02 -.183E+04   -.123E+03 0.852E+02 0.183E+04   -.399E+00 -.469E+00 -.164E+01   -.943E-02 0.167E-02 -.839E-02
   -.112E+03 -.525E+02 -.165E+04   0.112E+03 0.527E+02 0.166E+04   -.464E+00 -.226E+00 -.986E+00   0.324E-02 0.271E-02 0.100E-02
   -.384E+02 -.229E+02 -.181E+04   0.388E+02 0.224E+02 0.180E+04   -.358E+00 0.529E+00 0.237E+01   0.635E-03 -.722E-02 0.203E-02
   -.123E+03 -.823E+02 -.176E+04   0.122E+03 0.831E+02 0.176E+04   0.376E+00 -.815E+00 -.101E+01   0.791E-02 0.531E-02 -.416E-02
   -.133E+01 0.446E+01 0.258E+03   0.809E+00 -.429E+01 -.256E+03   0.515E+00 -.173E+00 -.188E+01   0.216E-02 0.824E-03 0.546E-02
   -.767E+01 0.339E+01 0.201E+03   0.758E+01 -.348E+01 -.199E+03   0.925E-01 0.906E-01 -.140E+01   0.573E-03 0.277E-02 0.449E-02
   0.849E+02 0.932E+02 -.184E+04   -.847E+02 -.927E+02 0.184E+04   -.224E+00 -.502E+00 -.456E+00   0.305E-02 0.292E-02 -.254E-02
   -.742E+01 -.119E+01 -.176E+04   0.760E+01 0.126E+01 0.177E+04   -.181E+00 -.646E-01 -.164E+01   0.396E-02 0.666E-02 -.239E-02
   0.320E+02 0.664E+02 -.176E+04   -.318E+02 -.667E+02 0.176E+04   -.143E+00 0.283E+00 0.718E+00   -.256E-02 -.605E-02 0.219E-02
   -.292E+01 0.308E+00 0.218E+03   0.283E+01 -.499E+00 -.217E+03   0.102E+00 0.199E+00 -.916E+00   -.553E-02 0.675E-03 0.168E-02
   -.658E+01 0.997E+02 -.176E+04   0.636E+01 -.993E+02 0.176E+04   0.229E+00 -.456E+00 -.108E+01   -.104E-01 -.106E-02 -.297E-02
   0.428E+01 0.318E+00 0.238E+03   -.409E+01 -.597E+00 -.235E+03   -.196E+00 0.284E+00 -.256E+01   0.143E-02 -.264E-02 -.100E-02
   0.134E+03 0.750E+02 -.182E+04   -.134E+03 -.755E+02 0.182E+04   0.139E+00 0.452E+00 -.120E+00   0.432E-02 0.639E-03 -.143E-02
   0.227E+01 -.115E+01 0.255E+03   0.000E+00 -.284E-13 0.387E-11   -.226E+01 0.115E+01 -.255E+03   0.339E-02 0.118E-01 -.134E-02

 POSITION                                       TOTAL-FORCE (eV/Angst)
      1.37532      0.79404     10.00000        -0.025012     -0.070785      0.233581
      5.50129      7.94043     10.00000         0.111207      0.042000     -0.006825
     15.15688      8.74992     12.59441         0.005049     -0.003672      0.002799
     12.37790      5.55830     10.00000         0.105335      0.060337     -0.130027
     13.75323      7.94043     10.00000         0.053235      0.002135     -0.070434
      4.12597      5.55830     10.00000        -0.060407     -0.000991     -0.032180
     12.36695      3.96713     12.47876        -0.000923      0.000901      0.005112
      2.75065      3.17617     10.00000         0.149567     -0.075807     -0.061198
     12.37721      8.72833     12.57612         0.001244      0.006562      0.005149
      8.25194      7.94043     10.00000        -0.166361     -0.060833      0.037576
      4.12597      0.79404     10.00000         0.073638      0.122833      0.035165
      4.14876      3.96173     12.64223         0.000747     -0.001648      0.002480
      5.50129      3.17617     10.00000         0.006278     -0.093444      0.075727
      5.51925      6.34338     12.60552         0.001649     -0.001043     -0.005530
      6.87661      0.79404     10.00000        -0.050689      0.056070     -0.144089
      5.50339      1.59397     12.73874         0.005995     -0.004941      0.009401
      8.25194      3.17617     10.00000        -0.032744     -0.018375      0.033895
      9.62726      5.55830     10.00000        -0.145354     -0.005180      0.026278
     11.00258      7.94043     10.00000         0.002608      0.106021     -0.078004
      9.58996      8.73719     12.57210        -0.002729      0.006211      0.005302
      9.62726      0.79404     10.00000         0.002663      0.059986     -0.006623
      8.26563      1.62916     12.63886         0.006552     -0.000970      0.009875
     11.00258      3.17617     10.00000        -0.138192     -0.134110     -0.051273
      6.87661      5.55830     10.00000         0.083905      0.012571      0.085840
      1.43528      0.99288     16.10662         0.000504      0.006668      0.001862
     11.03857      7.68626     16.10323         0.001037     -0.007369     -0.010759
      4.13605      0.76458     16.17901         0.000359      0.011142      0.012221
      5.41771      7.80371     16.11247         0.004925     -0.001012      0.005163
      9.50163      0.79515     16.15153         0.013465     -0.002153      0.010651
      7.01460      5.62777     16.11424         0.002663      0.004244      0.001130
      5.46836      3.19656     16.27409         0.005656     -0.005544      0.006893
      8.38368      3.28603     16.15245         0.005822      0.000551      0.010883
      2.69689      4.78410     14.85414         0.003056     -0.000291      0.001463
      5.40470      4.83177     15.19275        -0.001803      0.000112      0.002116
     10.97875      6.34630     12.42560         0.002686      0.000045     -0.001163
      6.87736      8.76115     12.60986        -0.000878      0.000818      0.000077
      6.92685      7.18747     14.92564        -0.002400      0.005691      0.010799
     12.39323      7.06586     14.83148        -0.004884      0.003238     -0.006738
     13.74551      6.35667     12.52498        -0.001220      0.004318     -0.007559
      5.58242     -0.05171     15.09942         0.016231     -0.008097      0.005901
      6.88781      3.97471     12.54271        -0.003486      0.001714     -0.001867
      6.90227      2.29216     15.17758        -0.002393     -0.001753      0.017085
      1.39368      2.52376     14.90814        -0.003900      0.005226     -0.002033
      4.05718      2.45414     15.10760         0.009634      0.003895     -0.000170
      8.32837      4.79126     14.88214        -0.001672     -0.004640     -0.005136
     11.01946      4.76321     14.73747         0.000445     -0.004586     -0.005361
      9.71799      2.43152     14.99465         0.001050      0.002735     -0.016180
      9.59975      3.97587     12.49644        -0.002331     -0.002724      0.006563
     11.01341      1.59411     12.58458        -0.001795     -0.001239     -0.001680
      8.18560     -0.07496     14.99235        -0.015598     -0.008097     -0.003322
     -0.00937      0.01079     15.09699        -0.002747      0.012206     -0.001827
      9.61288      7.08838     14.84852         0.011775     -0.009447      0.000220
      2.74427      1.59087     12.55451         0.002526      0.007674     -0.002351
      2.75750     -0.04819     15.01778        -0.005313     -0.011999     -0.008942
      8.24571      6.34243     12.55029        -0.008516      0.002430     -0.001826
      3.99753      7.09046     14.93364        -0.010157     -0.007582      0.001891
    total drift:                                0.013033      0.011622      0.039498

  FREE ENERGIE OF THE ION-ELECTRON SYSTEM (eV)
  free  energy   TOTEN  =      -235.76789456 eV

  energy  without entropy=     -235.59680905  energy(sigma->0) =     -235.68235180

 d Force = 0.4551941E-03[ 0.125E-03, 0.786E-03]  d Energy = 0.4736115E-03-0.184E-04
 d Force = 0.2087595E+02[ 0.209E+02, 0.209E+02]  d Ewald  = 0.2087596E+02-0.523E-05

 stress matrix after NEB project (eV)
      0.00000      0.00000      0.00000
      0.00000      0.00000      0.00000
      0.00000      0.00000      0.00000
  FORCES: max atom, RMS     0.019074    0.009041
  FORCE total and by dimension    0.067656    0.017085
  Stress total and by dimension    0.000000    0.000000
 Conjugate gradient step on ions:
 trial-energy change:   -0.000474  1 .order   -0.000455   -0.000786   -0.000125
  (g-gl).g = 0.267E-03      g.g   = 0.295E-03  gl.gl    = 0.501E-03
 g(Force)  = 0.295E-03   g(Stress)= 0.000E+00 ortho     = 0.552E-04
 gamma     =   0.53312
 trial     =   2.42208
 opt step  =   2.80505  (harmonic =   2.87921) maximal distance =0.00468316
 next E    =  -235.767904   (d E  =  -0.00048)

 reached required accuracy - stopping structural energy minimisation