 vasp.5.4.1 24Jun15 (build Mar 14 2019 10:18:33) complex

 executed on INTEL-19.0.2+OPENMPI date 2023.01.30  16:27:02

 INCAR:
 POTCAR:    PAW_PBE Au 04Oct2007
 POTCAR:    PAW_PBE Pd 04Jan2005
 POTCAR:    PAW_PBE Au 04Oct2007

 POTCAR:    PAW_PBE Pd 04Jan2005

 Optimization of the real space projectors (new method)

 maximal supplied QI-value         = 15.12
 optimisation between [QCUT,QGAM] = [ 10.13, 20.41] = [ 28.73,116.64] Ry
 Optimized for a Real-space Cutoff    1.51 Angstroem

   l    n(q)    QCUT    max X(q) W(low)/X(q) W(high)/X(q)  e(spline)
   2      8    10.129    60.898    0.46E-03    0.46E-03    0.14E-06
   2      8    10.129    58.894    0.47E-03    0.47E-03    0.14E-06
   0      9    10.129   109.617    0.16E-03    0.11E-03    0.54E-07
   0      9    10.129    75.026    0.15E-03    0.11E-03    0.52E-07
   1      9    10.129    16.344    0.96E-04    0.15E-03    0.14E-06
   1      9    10.129    10.160    0.81E-04    0.12E-03    0.11E-06
 Optimization of the real space projectors (new method)

 maximal supplied QI-value         = 14.36
 optimisation between [QCUT,QGAM] = [ 10.20, 20.39] = [ 29.12,116.47] Ry
 Optimized for a Real-space Cutoff    1.51 Angstroem

   l    n(q)    QCUT    max X(q) W(low)/X(q) W(high)/X(q)  e(spline)
   2      8    10.197    59.108    0.26E-03    0.14E-03    0.96E-07
   2      8    10.197    58.101    0.27E-03    0.14E-03    0.98E-07
   0      9    10.197   102.235    0.54E-04    0.60E-05    0.72E-07
   0      9    10.197    58.388    0.52E-04    0.60E-05    0.68E-07
   1      9    10.197    22.191    0.18E-03    0.25E-03    0.79E-07
   1      9    10.197    15.590    0.15E-03    0.21E-03    0.69E-07
  PAW_PBE Au 04Oct2007                  :
  PAW_PBE Pd 04Jan2005                  :

 POSCAR: Au Pd
  positions in cartesian coordinates
 exchange correlation table for  LEXCH =        8
   RHO(1)=    0.500       N(1)  =     2000
   RHO(2)=  100.500       N(2)  =     4000

 VTST: version 3.2, (02/03/18)

 CHAIN: initializing optimizer

 OPT: Using VASP Conjugate-Gradient optimizer
 CHAIN: Read ICHAIN            0

 POSCAR: Au Pd
  positions in cartesian coordinates

 ion  position               nearest neighbor table
   1  0.083  0.083  0.408-  32 2.75  30 2.75  26 2.75  36 2.75  40 2.75  19 2.75   5 2.75  34 2.75
                             6 2.75
   2  0.083  0.583  0.408-  11 2.75  13 2.75  23 2.75  26 2.75  36 2.75  29 2.75  43 2.75   9 2.75
                            47 2.75
   3  0.000  0.250  0.592-  39 2.75  32 2.75  35 2.75   7 2.75  44 2.75  45 2.75  10 2.75  42 2.75
                             6 2.75
   4  0.917  0.917  0.500-  23 2.75  28 2.75  21 2.75   6 2.75  11 2.75  20 2.75  47 2.75  34 2.75
                            12 2.75  19 2.75  44 2.75  26 2.75
   5  0.333  0.083  0.408-  27 2.75  13 2.75  30 2.75  36 2.75  46 2.75   1 2.75  24 2.75  38 2.75
                            32 2.75
   6  0.917  0.167  0.500-  19 2.75  44 2.75  42 2.75  39 2.75  41 2.75   4 2.75  34 2.75  32 2.75
                            20 2.75  40 2.75   1 2.75   3 2.75
   7  0.250  0.000  0.592-  32 2.75  38 2.75  18 2.75   3 2.75  10 2.75  48 2.75  44 2.75  14 2.75
                            34 2.75
   8  0.750  0.750  0.592-  12 2.75  47 2.75  21 2.75  35 2.75  45 2.75  14 2.75  28 2.75  18 2.75
                            22 2.75
   9  0.167  0.417  0.500-  36 2.75  10 2.75  35 2.75  32 2.75  11 2.75  27 2.75  47 2.75  39 2.75
                            25 2.75   2 2.75  31 2.75  13 2.75
  10  0.250  0.250  0.592-   9 2.75  27 2.75  14 2.75   7 2.75  31 2.75  35 2.75  33 2.75   3 2.75
                            32 2.75
  11  0.167  0.667  0.500-   2 2.75  31 2.75  28 2.75  25 2.75   4 2.75   9 2.75  34 2.75  17 2.75
                            47 2.75  26 2.75  29 2.75  48 2.75
  12  0.667  0.917  0.500-  46 2.75   8 2.75  14 2.75  22 2.75  27 2.75  20 2.75  47 2.75   4 2.75
                            38 2.75  24 2.75  23 2.75  21 2.75
  13  0.333  0.333  0.408-  25 2.75   5 2.75  24 2.75   2 2.75  29 2.75  15 2.75  36 2.75  27 2.75
                             9 2.75
  14  0.500  0.000  0.592-  27 2.75  12 2.75   8 2.75  18 2.75  10 2.75  33 2.75   7 2.75  21 2.75
                            38 2.75
  15  0.583  0.333  0.408-  41 2.75  19 2.75  24 2.75  29 2.75  16 2.75  40 2.75  13 2.75  20 2.75
                            25 2.75
  16  0.583  0.583  0.408-  22 2.75  15 2.75  30 2.75  40 2.75  46 2.75  43 2.75  29 2.75  41 2.75
                            17 2.75
  17  0.417  0.667  0.500-  29 2.75  37 2.75  48 2.75  25 2.75  38 2.75  41 2.75  34 2.75  22 2.75
                            11 2.75  30 2.75  18 2.75  16 2.75
  18  0.500  0.750  0.592-  38 2.75  22 2.75   7 2.75  37 2.75  14 2.75  45 2.75   8 2.75  48 2.75
                            17 2.75
  19  0.833  0.083  0.408-   6 2.75  15 2.75  23 2.75  26 2.75  40 2.75   1 2.75  24 2.75   4 2.75
                            20 2.75
  20  0.667  0.167  0.500-  24 2.75  21 2.75  33 2.75  12 2.75  25 2.75   4 2.75  41 2.75   6 2.75
                            27 2.75  15 2.75  19 2.75  42 2.75
  21  0.750  0.000  0.592-  20 2.75   4 2.75   8 2.75  28 2.75  33 2.75  42 2.75  14 2.75  44 2.75
                            12 2.75
  22  0.667  0.667  0.500-  16 2.75  45 2.75  18 2.75  38 2.75  39 2.75  41 2.75  12 2.75  17 2.75
                            47 2.75  46 2.75  43 2.75   8 2.75
  23  0.833  0.833  0.408-   4 2.75   2 2.75  19 2.75  24 2.75  43 2.75  26 2.75  46 2.75  47 2.75
                            12 2.75
  24  0.583  0.083  0.408-  20 2.75  15 2.75  13 2.75  23 2.75  46 2.75  19 2.75   5 2.75  12 2.75
                            27 2.75
  25  0.417  0.417  0.500-  13 2.75  33 2.75  31 2.75  20 2.75  27 2.75  11 2.75  17 2.75   9 2.75
                            41 2.75  29 2.75  37 2.75  15 2.75
  26  0.083  0.833  0.408-  34 2.75   2 2.75  19 2.75  29 2.75   1 2.75  30 2.75  23 2.75  11 2.75
                             4 2.75
  27  0.417  0.167  0.500-   5 2.75  14 2.75  10 2.75  12 2.75   9 2.75  25 2.75  38 2.75  32 2.75
                            20 2.75  13 2.75  33 2.75  24 2.75
  28  0.000  0.750  0.592-   4 2.75  11 2.75  21 2.75  31 2.75  35 2.75  44 2.75   8 2.75  48 2.75
                            47 2.75
  29  0.333  0.583  0.408-  17 2.75  15 2.75  13 2.75  26 2.75  30 2.75  16 2.75   2 2.75  25 2.75
                            11 2.75
  30  0.333  0.833  0.408-  38 2.75   5 2.75  16 2.75  29 2.75   1 2.75  26 2.75  46 2.75  17 2.75
                            34 2.75
  31  0.250  0.500  0.592-  11 2.75  25 2.75  10 2.75  28 2.75  33 2.75  48 2.75  37 2.75  35 2.75
                             9 2.75
  32  0.167  0.167  0.500-   1 2.75   7 2.75   3 2.75   9 2.75  34 2.75  38 2.75  39 2.75  27 2.75
                             6 2.75  36 2.75  10 2.75   5 2.75
  33  0.500  0.250  0.592-  25 2.75  20 2.75  21 2.75  14 2.75  31 2.75  37 2.75  10 2.75  42 2.75
                            27 2.75
  34  0.167  0.917  0.500-  26 2.75  48 2.75  44 2.75   6 2.75  32 2.75  11 2.75  17 2.75   4 2.75
                            38 2.75   1 2.75   7 2.75  30 2.75
  35  0.000  0.500  0.592-  47 2.75   9 2.75   3 2.75  10 2.75  28 2.75   8 2.75  45 2.75  31 2.75
                            39 2.75
  36  0.083  0.333  0.408-   9 2.75   2 2.75   5 2.75   1 2.75  43 2.75  40 2.75  13 2.75  32 2.75
                            39 2.75
  37  0.500  0.500  0.592-  17 2.75  41 2.75  33 2.75  18 2.75  42 2.75  48 2.75  45 2.75  31 2.75
                            25 2.75
  38  0.417  0.917  0.500-  30 2.75  18 2.75   7 2.75  22 2.75  27 2.75  17 2.75  32 2.75  12 2.75
                            34 2.75   5 2.75  14 2.75  46 2.75
  39  0.917  0.417  0.500-  40 2.75   3 2.75  45 2.75  32 2.75   6 2.75  22 2.75  47 2.75   9 2.75
                            41 2.75  43 2.75  36 2.75  35 2.75
  40  0.833  0.333  0.408-  39 2.75  16 2.75  19 2.75   1 2.75  43 2.75  15 2.75  36 2.75   6 2.75
                            41 2.75
  41  0.667  0.417  0.500-  15 2.75  42 2.75  37 2.75  20 2.75  22 2.75   6 2.75  17 2.75  39 2.75
                            25 2.75  16 2.75  40 2.75  45 2.75
  42  0.750  0.250  0.592-  41 2.75   6 2.75  37 2.75  21 2.75  44 2.75  45 2.75   3 2.75  33 2.75
                            20 2.75
  43  0.833  0.583  0.408-  47 2.75  36 2.75  40 2.75  46 2.75  23 2.75  16 2.75   2 2.75  39 2.75
                            22 2.75
  44  0.000  0.000  0.592-   6 2.75  34 2.75  28 2.75   3 2.75  42 2.75  48 2.75   7 2.75  21 2.75
                             4 2.75
  45  0.750  0.500  0.592-  22 2.75  39 2.75  18 2.75   3 2.75   8 2.75  42 2.75  35 2.75  37 2.75
                            41 2.75
  46  0.583  0.833  0.408-  12 2.75   5 2.75  16 2.75  24 2.75  43 2.75  30 2.75  23 2.75  22 2.75
                            38 2.75
  47  0.917  0.667  0.500-  43 2.75  35 2.75   8 2.75  12 2.75   4 2.75  39 2.75   9 2.75  22 2.75
                            11 2.75  23 2.75  28 2.75   2 2.75
  48  0.250  0.750  0.592-  34 2.75  17 2.75  31 2.75   7 2.75  37 2.75  44 2.75  18 2.75  28 2.75
                            11 2.75

  LATTYP: Found a hexagonal cell.
 ALAT       =    11.0025815153
 C/A-ratio  =     2.2260035120

  Lattice vectors:

 A1 = (   5.5012907576,  -9.5285150994,   0.0000000000)
 A2 = ( -11.0025815153,   0.0000000000,   0.0000000000)
 A3 = (   0.0000000000,   0.0000000000, -24.4917850943)

Analysis of symmetry for initial positions (statically):
 Subroutine PRICEL returns:
 Original cell was already a primitive cell.

 Routine SETGRP: Setting up the symmetry group for a
 hexagonal supercell.

 Subroutine GETGRP returns: Found  1 space group operations
 (whereof  1 operations were pure point group operations)
 out of a pool of 24 trial point group operations.

The static configuration has the point symmetry C_1 .

Analysis of symmetry for dynamics (positions and initial velocities):
 Subroutine PRICEL returns:
 Original cell was already a primitive cell.

[...]

The dynamic configuration has the point symmetry C_1 .

Analysis of constrained symmetry for selective dynamics:
 Subroutine PRICEL returns:
 Original cell was already a primitive cell.

 Routine SETGRP: Setting up the symmetry group for a
 hexagonal supercell.

 Subroutine GETGRP returns: Found  1 space group operations
 (whereof  1 operations were pure point group operations)
 out of a pool of 24 trial point group operations.

The constrained configuration has the point symmetry C_1 .

 KPOINTS: Automatic mesh

Automatic generation of k-mesh.
Space group operators:
 irot       det(A)        alpha          n_x          n_y          n_z        tau_x        tau_y        tau_z
    1     1.000000     0.000000     1.000000     0.000000     0.000000     0.000000     0.000000     0.000000

 Subroutine IBZKPT returns following result:

 Found      6 irreducible k-points:

 Following reciprocal coordinates:
            Coordinates               Weight
  0.250000  0.250000  0.000000     16.000000
  0.000000  0.250000  0.000000     16.000000
 -0.250000  0.000000  0.000000     16.000000
 -0.250000  0.250000  0.000000     16.000000
  0.500000 -0.250000  0.000000     16.000000
[...]
 dipolmoment           0.000000      0.000000      0.017832 electrons x Angstroem
 Tr[quadrupol]    -10218.609197

 energy correction for charged system         0.000000 eV
 dipol+quadrupol energy correction           -0.000011 eV
 added-field ion interaction         -0.127783 eV  (added to PSCEN)

  free energy =  -0.192065156633E+03  energy without entropy=  -0.191819938008E+03

 average (electrostatic) potential at core
  the test charge radii are     1.2098  1.1199
  (the norm of the test charge is              1.0000)
       1 -73.9576       2 -73.9596       3 -73.8916       4 -74.2106       5 -73.9821
       6 -74.1335       7 -74.0014       8 -73.9068       9 -74.1198      10 -73.9267
      11 -74.1413      12 -74.1812      13 -74.0355      14 -74.0137      15 -74.0003
      16 -73.9360      17 -74.1015      18 -73.9259      19 -74.0843      20 -74.2023
      21 -73.8952      22 -74.1303      23 -74.0275      24 -74.1430      25 -80.9096
      26 -80.7020      27 -80.8838      28 -80.8382      29 -80.7424      30 -80.7425
      31 -80.8235      32 -80.8708      33 -80.8470      34 -80.8751      35 -80.8163
      36 -80.7342      37 -80.8169      38 -80.8580      39 -80.9040      40 -80.7648
      41 -80.8960      42 -80.8111      43 -80.7559      44 -80.8259      45 -80.8197
      46 -80.7566      47 -80.8785      48 -80.7913

 E-fermi :  -1.0884     XC(G=0):  -4.5482     alpha+bet : -4.5214

[...]

 k-point     6 :      -0.2500    0.5000    0.0000
  band No.  band energies     occupation
      1      -8.6231      2.00000
      2      -8.0799      2.00000
      3      -7.9299      2.00000
      4      -7.5820      2.00000
      5      -7.2558      2.00000
      6      -7.1333      2.00000
      7      -7.0579      2.00000
      8      -6.9933      2.00000
      9      -6.8928      2.00000
     10      -6.8355      2.00000
     11      -6.7770      2.00000
     12      -6.7340      2.00000
     13      -6.7258      2.00000
     14      -6.6830      2.00000
     15      -6.6711      2.00000
     16      -6.5963      2.00000
     17      -6.5368      2.00000
     18      -6.5016      2.00000
     19      -6.4661      2.00000
     20      -6.4307      2.00000
     21      -6.4100      2.00000
     22      -6.3717      2.00000
     23      -6.3529      2.00000
     24      -6.3090      2.00000
     25      -6.2876      2.00000
     26      -6.2460      2.00000
     27      -6.2333      2.00000
     28      -6.2181      2.00000
     29      -6.1988      2.00000
     30      -6.1433      2.00000
     31      -6.1353      2.00000
     32      -6.1187      2.00000
     33      -6.0894      2.00000
     34      -6.0674      2.00000
     35      -6.0287      2.00000
     36      -5.9996      2.00000
     37      -5.9854      2.00000
     38      -5.9286      2.00000
     39      -5.9148      2.00000
     40      -5.9018      2.00000
     41      -5.8785      2.00000
     42      -5.8391      2.00000
     43      -5.8101      2.00000
     44      -5.7940      2.00000
     45      -5.7702      2.00000
     46      -5.7298      2.00000
     47      -5.7049      2.00000
     48      -5.6923      2.00000
     49      -5.6521      2.00000
     50      -5.6185      2.00000
     51      -5.5955      2.00000
     52      -5.5663      2.00000
     53      -5.5094      2.00000
     54      -5.5004      2.00000
     55      -5.4731      2.00000
     56      -5.4451      2.00000
     57      -5.4299      2.00000
     58      -5.4095      2.00000
     59      -5.3674      2.00000
     60      -5.3386      2.00000
[...]
    292       4.1966      0.00000
    293       4.4612      0.00000
    294       4.5644      0.00000
    295       4.6123      0.00000
    296       4.6368      0.00000
    297       4.7342      0.00000
    298       4.8258      0.00000
    299       4.8892      0.00000
    300       4.9280      0.00000
    301       4.9638      0.00000
    302       5.0533      0.00000
    303       5.0777      0.00000
    304       5.0870      0.00000
    305       5.1778      0.00000
    306       5.2296      0.00000

 soft charge-density along one line, spin component           1
         0         1         2         3         4         5         6         7         8         9
 total charge-density along one line

------------------------ aborting loop because EDIFF is reached ----------------------------------------

 VOLUME and BASIS-vectors are now :
  energy-cutoff  :      400.00
  volume of cell :     2567.68
      direct lattice vectors                 reciprocal lattice vectors
    11.002581515  0.000000000  0.000000000     0.090887761 -0.052474073  0.000000000
     5.501290758  9.528515099  0.000000000     0.000000000  0.104948147  0.000000000
     0.000000000  0.000000000 24.491785094     0.000000000  0.000000000  0.040830017

  length of vectors
    11.002581515 11.002581515 24.491785094     0.104948147  0.104948147  0.040830017

 FORCES acting on ions
    electron-ion (+dipol)            ewald-force                    non-local-force                 convergence-correction
   -.575E+01 -.162E+00 0.221E+04   0.587E+01 -.704E-01 -.221E+04   -.520E-01 0.209E+00 -.248E+00   -.222E-02 0.500E-02 0.612E-03
   0.898E+01 -.558E+00 0.222E+04   -.908E+01 0.762E+00 -.222E+04   0.219E-01 -.175E+00 0.150E+00   -.405E-02 -.202E-02 0.203E-02
   0.653E+01 -.745E+01 -.226E+04   -.710E+01 0.817E+01 0.226E+04   0.557E+00 -.716E+00 0.189E+00   -.784E-03 -.265E-02 -.500E-02
   0.942E+01 -.269E+01 -.469E+02   -.876E+01 0.198E+01 0.476E+02   -.661E+00 0.700E+00 -.653E+00   0.323E-03 0.780E-03 -.597E-02
   0.869E+01 0.108E+02 0.221E+04   -.875E+01 -.113E+02 -.221E+04   -.159E-01 0.304E+00 -.474E+00   0.119E-03 0.302E-02 -.134E-02
   -.101E+02 -.162E+01 -.320E+02   0.106E+02 0.222E+01 0.324E+02   -.503E+00 -.605E+00 -.484E+00   -.274E-02 0.133E-02 -.448E-02
   0.113E+02 0.729E+01 -.220E+04   -.122E+02 -.783E+01 0.220E+04   0.850E+00 0.544E+00 0.775E+00   -.170E-02 -.217E-02 -.914E-02
   -.213E+01 0.200E+02 -.230E+04   0.290E+01 -.211E+02 0.230E+04   -.768E+00 0.109E+01 -.222E-01   0.653E-03 0.147E-02 -.230E-02
   0.488E+01 0.744E+01 -.169E+02   -.547E+01 -.779E+01 0.175E+02   0.590E+00 0.364E+00 -.561E+00   0.236E-02 0.141E-02 -.989E-02
   0.242E+01 -.134E+02 -.227E+04   -.177E+01 0.141E+02 0.227E+04   -.644E+00 -.634E+00 0.336E+00   -.346E-02 0.302E-02 -.234E-02
   0.165E+00 -.119E+01 0.168E+02   0.837E-01 0.139E+01 -.162E+02   -.236E+00 -.199E+00 -.560E+00   -.811E-02 -.167E-02 0.137E-02
   0.192E+01 0.399E+01 -.549E+02   -.279E+01 -.407E+01 0.543E+02   0.866E+00 0.859E-01 0.623E+00   0.495E-02 -.568E-02 -.647E-02
   0.840E+01 -.479E+01 0.221E+04   -.837E+01 0.526E+01 -.221E+04   -.884E-01 -.332E+00 -.249E+00   -.120E-02 0.118E-02 0.802E-03
   0.101E+02 -.113E+01 -.225E+04   -.101E+02 0.170E+01 0.225E+04   -.570E-01 -.554E+00 0.243E+00   0.240E-02 -.513E-02 -.156E-01
   -.781E+01 -.112E+02 0.221E+04   0.803E+01 0.118E+02 -.221E+04   -.127E+00 -.417E+00 -.223E+00   0.327E-02 -.393E-03 0.278E-02
   -.862E+01 -.110E+02 0.223E+04   0.879E+01 0.111E+02 -.223E+04   -.927E-01 -.284E-01 0.111E-01   0.435E-02 -.478E-02 0.200E-02
   -.885E+01 -.981E+01 0.611E+01   0.842E+01 0.987E+01 -.614E+01   0.420E+00 -.561E-01 0.287E-01   0.146E-02 -.146E-02 -.104E-02
   0.145E+02 0.143E+02 -.226E+04   -.150E+02 -.150E+02 0.226E+04   0.428E+00 0.733E+00 -.147E-01   0.167E-02 -.149E-02 0.100E-01
   -.134E+02 0.438E+00 0.221E+04   0.138E+02 -.451E+00 -.221E+04   -.201E+00 0.197E-01 0.429E+00   -.211E-03 0.299E-02 0.304E-02
   0.162E+01 0.112E+02 -.829E+02   -.233E+01 -.100E+02 0.841E+02   0.694E+00 -.119E+01 -.118E+01   0.924E-02 -.417E-02 -.140E-01
   -.147E+02 -.455E+01 -.235E+04   0.155E+02 0.485E+01 0.235E+04   -.761E+00 -.295E+00 -.226E+00   -.763E-03 -.391E-02 -.108E-01
   -.170E+01 -.103E+02 0.302E+01   0.236E+01 0.978E+01 -.345E+01   -.666E+00 0.514E+00 0.432E+00   0.947E-02 -.154E-02 -.651E-02
   0.784E+01 0.149E+02 0.221E+04   -.800E+01 -.156E+02 -.221E+04   0.747E-01 0.482E+00 0.842E-01   -.132E-02 -.200E-02 0.248E-02
   0.105E+02 0.108E+02 0.220E+04   -.109E+02 -.112E+02 -.220E+04   0.305E+00 0.227E+00 0.210E+00   0.224E-02 0.444E-03 0.907E-03
   0.195E+01 -.282E+00 -.243E+01   -.171E+01 0.129E+00 0.336E+01   -.252E+00 0.160E+00 -.917E+00   0.146E-02 0.255E-02 -.379E-02
   -.183E+02 0.457E+01 0.202E+04   0.189E+02 -.477E+01 -.202E+04   -.326E+00 0.107E+00 -.142E+01   -.277E-02 0.514E-03 0.154E-02
   0.107E+02 0.735E+01 -.495E+02   -.107E+02 -.733E+01 0.500E+02   -.189E-01 -.281E-01 -.467E+00   0.192E-02 -.255E-02 -.878E-02
   -.156E+02 0.132E+02 -.201E+04   0.157E+02 -.135E+02 0.200E+04   -.114E+00 0.323E+00 0.163E+01   -.989E-03 0.765E-03 -.104E-01
   -.303E+01 -.181E+02 0.203E+04   0.295E+01 0.184E+02 -.203E+04   0.943E-01 -.719E-01 -.153E+01   -.169E-03 -.294E-02 0.132E-02
   0.245E+01 0.391E+01 0.202E+04   -.265E+01 -.393E+01 -.202E+04   0.106E+00 -.342E-01 -.181E+01   0.425E-03 -.486E-03 0.564E-03
   -.926E+01 -.974E+01 -.200E+04   0.950E+01 0.984E+01 0.200E+04   -.236E+00 -.988E-01 0.169E+01   0.303E-02 0.217E-02 -.521E-02
   -.227E+01 0.909E+00 -.141E+02   0.241E+01 -.103E+01 0.135E+02   -.137E+00 0.123E+00 0.502E+00   -.866E-03 0.117E-03 0.288E-02
   -.301E+01 -.239E+02 -.201E+04   0.312E+01 0.245E+02 0.201E+04   -.108E+00 -.572E+00 0.189E+01   0.325E-02 0.132E-02 -.130E-01
   -.903E+01 -.298E+01 0.190E+02   0.939E+01 0.296E+01 -.190E+02   -.360E+00 0.102E-01 -.348E-01   0.139E-02 0.280E-02 -.244E-02
   -.179E+01 -.107E+01 -.198E+04   0.165E+01 0.147E+01 0.197E+04   0.140E+00 -.393E+00 0.158E+01   -.147E-02 0.190E-02 -.178E-01
   0.185E+02 -.542E+01 0.202E+04   -.191E+02 0.567E+01 -.202E+04   0.350E+00 -.125E+00 -.181E+01   -.295E-02 0.339E-02 0.778E-03
   0.466E+01 -.247E+01 -.198E+04   -.472E+01 0.200E+01 0.198E+04   0.631E-01 0.473E+00 0.182E+01   -.101E-02 0.678E-04 -.124E-01
   -.138E+01 0.102E+01 0.622E+01   0.110E+01 -.596E+00 -.705E+01   0.280E+00 -.417E+00 0.824E+00   -.256E-02 0.743E-03 0.274E-02
   -.238E+01 0.776E+00 0.434E+02   0.235E+01 -.594E+00 -.439E+02   0.368E-01 -.172E+00 0.451E+00   -.386E-02 0.195E-02 -.737E-02
   -.185E+02 -.112E+02 0.202E+04   0.190E+02 0.116E+02 -.202E+04   -.227E+00 -.290E+00 -.180E+01   0.106E-02 0.233E-02 0.305E-02
   -.564E+01 -.272E+01 0.902E+01   0.580E+01 0.262E+01 -.819E+01   -.163E+00 0.107E+00 -.824E+00   0.606E-02 -.354E-02 -.826E-02
   -.625E+01 -.172E+02 -.202E+04   0.598E+01 0.176E+02 0.202E+04   0.280E+00 -.428E+00 0.156E+01   -.564E-03 -.215E-02 -.126E-01
   0.251E+01 0.906E+01 0.202E+04   -.243E+01 -.936E+01 -.202E+04   -.710E-01 0.171E+00 -.170E+01   -.749E-04 -.294E-02 0.251E-02
   -.884E+01 0.642E+01 -.200E+04   0.891E+01 -.677E+01 0.200E+04   -.714E-01 0.354E+00 0.157E+01   -.243E-02 -.696E-03 -.294E-02
   0.686E+01 0.103E+02 -.196E+04   -.687E+01 -.106E+02 0.196E+04   0.182E-01 0.284E+00 0.154E+01   -.120E-02 -.102E-02 -.955E-02
   0.882E+01 0.863E+01 0.202E+04   -.910E+01 -.876E+01 -.202E+04   0.208E+00 0.383E-01 -.149E+01   0.348E-02 -.289E-02 0.509E-03
   0.100E+02 -.415E+00 -.147E+02   -.103E+02 -.563E-01 0.152E+02   0.252E+00 0.461E+00 -.455E+00   -.284E-02 0.137E-02 -.802E-02
   0.458E+01 0.802E+01 -.200E+04   -.495E+01 -.805E+01 0.199E+04   0.368E+00 0.378E-01 0.143E+01   0.194E-02 -.393E-02 0.121E-02
   -.655E-01 -.719E-01 -.698E+00   -.702E-12 0.469E-12 0.136E-11   0.480E-01 0.948E-01 0.853E+00   0.162E-01 -.196E-01 -.174E+00

 POSITION                                       TOTAL-FORCE (eV/Angst)
      1.37532      0.79404     10.00000         0.060369     -0.018477     -0.101068
      4.12597      5.55830     10.00000        -0.088464      0.027227     -0.281896
      1.35469      2.41037     14.96296        -0.006217     -0.000671      0.003102
     15.14235      8.72475     12.50122         0.000376     -0.006273     -0.004888
      4.12597      0.79404     10.00000        -0.079742     -0.191035      0.049960
     11.02400      1.61665     12.48689        -0.001371      0.003220     -0.000866
      2.72629     -0.01251     14.89993        -0.003242      0.002521     -0.001351
     12.40599      7.11460     15.04817         0.005114     -0.000600      0.004026
      4.09868      3.94830     12.46692        -0.001226      0.011042      0.009095
      4.13583      2.41180     14.98692        -0.000451     -0.001361      0.005676
      5.50639      6.35194     12.43145         0.004861     -0.006800      0.004729
     12.34828      8.73164     12.49625         0.001183      0.000943      0.001827
      5.50129      3.17617     10.00000        -0.058845      0.139237     -0.118821
      5.51065      0.00698     14.99670         0.000956      0.005511      0.014577
      8.25194      3.17617     10.00000         0.095444      0.204377     -0.174935
      9.62726      5.55830     10.00000         0.083209      0.084205     -0.287414
      8.24817      6.36029     12.43608        -0.005341     -0.000749     -0.005473
      9.60782      7.11245     14.98362        -0.000670      0.001630     -0.001576
      9.62726      0.79404     10.00000         0.199286      0.009351     -0.256583
      8.23243      1.61221     12.54725        -0.008450      0.004846      0.000448
      8.28753      0.01176     15.10436         0.007820      0.004703      0.012144
     11.01724      6.33955     12.43409         0.005906     -0.010653     -0.009650
     13.75323      7.94043     10.00000        -0.089348     -0.259501     -0.174261
      6.87661      0.79404     10.00000        -0.155178     -0.127089     -0.131775
      6.87342      3.96354     12.45148        -0.008589      0.009630      0.004612
      5.50129      7.94043     10.00000         0.214738     -0.084247      0.153602
      5.48402      1.58865     12.50928        -0.004312     -0.005227      0.001721
      4.14051      7.12577     14.85585        -0.001197      0.005587      0.007224
      6.87661      5.55830     10.00000         0.018230      0.200188      0.130396
      8.25194      7.94043     10.00000        -0.092824     -0.060569      0.209025
      5.50979      4.77575     14.82400         0.003421     -0.000059     -0.001465
      2.75799      1.58113     12.45801        -0.001429      0.000498      0.001374
      6.87881      2.41072     14.87204         0.001640     -0.005591      0.006955
      6.89665      8.74758     12.42686         0.003607     -0.003034     -0.002050
      2.74909      4.77414     14.82415        -0.002396      0.003899      0.004184
      2.75065      3.17617     10.00000        -0.257442      0.134685      0.235224
      8.24761      4.74169     14.80490        -0.000092      0.003124      0.006758
      9.61396      8.75110     12.42988        -0.010068      0.004325     -0.002145
     12.37837      3.96126     12.39525        -0.001636      0.012039      0.000418
     11.00258      3.17617     10.00000         0.230429      0.123543      0.198438
      9.62841      3.97062     12.43578         0.003694      0.004714     -0.003156
      9.61586      2.40727     14.86846         0.007705      0.004893      0.011396
     12.37790      5.55830     10.00000         0.012782     -0.130043      0.227915
     -0.00016     -0.01279     14.85713        -0.007029      0.004768      0.004882
     11.00284      4.76232     14.79778         0.002009     -0.007786      0.002306
     11.00258      7.94043     10.00000        -0.066037     -0.084752      0.244650
     13.73835      6.34456     12.46333        -0.007334     -0.008543      0.005670
      6.85492      7.13157     14.82582        -0.003846      0.002357     -0.002961
    total drift:                               -0.001293      0.003363     -0.019784

  FREE ENERGIE OF THE ION-ELECTRON SYSTEM (eV)
  free  energy   TOTEN  =      -192.06515663 eV

  energy  without entropy=     -191.81993801  energy(sigma->0) =     -191.94254732

 d Force = 0.4268280E-03[ 0.199E-03, 0.655E-03]  d Energy = 0.4113729E-03 0.155E-04
 d Force = 0.4215000E+02[ 0.422E+02, 0.421E+02]  d Ewald  = 0.4215001E+02-0.286E-05

 stress matrix after NEB project (eV)
      0.00000      0.00000      0.00000
      0.00000      0.00000      0.00000
      0.00000      0.00000      0.00000
  FORCES: max atom, RMS     0.015613    0.007676
  FORCE total and by dimension    0.053180    0.014577
  Stress total and by dimension    0.000000    0.000000
 Conjugate gradient step on ions:
 trial-energy change:   -0.000411  1 .order   -0.000427   -0.000655   -0.000199
  (g-gl).g = 0.276E-03      g.g   = 0.252E-03  gl.gl    = 0.517E-03
 g(Force)  = 0.252E-03   g(Stress)= 0.000E+00 ortho     =-0.144E-04
 gamma     =   0.53382
 trial     =   2.68185
 opt step  =   4.44039  (harmonic =   3.84884) maximal distance =0.00572818
 next E    =  -192.065217   (d E  =  -0.00047)

 reached required accuracy - stopping structural energy minimisation