 vasp.5.4.1 24Jun15 (build Mar 14 2019 10:18:33) complex

 executed on INTEL-19.0.2+OPENMPI date 2022.07.11  20:35:41

 INCAR:
 POTCAR:    PAW_PBE Au 04Oct2007
 POTCAR:    PAW_PBE Pd 04Jan2005
 POTCAR:    PAW_PBE Au 04Oct2007

 POTCAR:    PAW_PBE Pd 04Jan2005

 Optimization of the real space projectors (new method)

 maximal supplied QI-value         = 15.12
 optimisation between [QCUT,QGAM] = [ 10.13, 20.41] = [ 28.73,116.64] Ry
 Optimized for a Real-space Cutoff    1.51 Angstroem

   l    n(q)    QCUT    max X(q) W(low)/X(q) W(high)/X(q)  e(spline)
   2      8    10.129    60.898    0.46E-03    0.46E-03    0.14E-06
   2      8    10.129    58.894    0.47E-03    0.47E-03    0.14E-06
   0      9    10.129   109.617    0.16E-03    0.11E-03    0.54E-07
   0      9    10.129    75.026    0.15E-03    0.11E-03    0.52E-07
   1      9    10.129    16.344    0.96E-04    0.15E-03    0.14E-06
   1      9    10.129    10.160    0.81E-04    0.12E-03    0.11E-06
 Optimization of the real space projectors (new method)

 maximal supplied QI-value         = 14.36
 optimisation between [QCUT,QGAM] = [ 10.20, 20.39] = [ 29.12,116.47] Ry
 Optimized for a Real-space Cutoff    1.51 Angstroem

   l    n(q)    QCUT    max X(q) W(low)/X(q) W(high)/X(q)  e(spline)
   2      8    10.197    59.108    0.26E-03    0.14E-03    0.96E-07
   2      8    10.197    58.101    0.27E-03    0.14E-03    0.98E-07
   0      9    10.197   102.235    0.54E-04    0.60E-05    0.72E-07
   0      9    10.197    58.388    0.52E-04    0.60E-05    0.68E-07
   1      9    10.197    22.191    0.18E-03    0.25E-03    0.79E-07
   1      9    10.197    15.590    0.15E-03    0.21E-03    0.69E-07
  PAW_PBE Au 04Oct2007                  :
  PAW_PBE Pd 04Jan2005                  :

 POSCAR: Au Pd
  positions in cartesian coordinates
 exchange correlation table for  LEXCH =        8
   RHO(1)=    0.500       N(1)  =     2000
   RHO(2)=  100.500       N(2)  =     4000

 VTST: version 3.2, (02/03/18)

 CHAIN: initializing optimizer

 OPT: Using VASP Conjugate-Gradient optimizer
 CHAIN: Read ICHAIN            0

 POSCAR: Au Pd
  positions in cartesian coordinates

 ion  position               nearest neighbor table
   1  0.083  0.083  0.408-  18 2.75  11 2.75  24 2.75  26 2.75  33 2.75  28 2.75  19 2.75  43 2.75
                            23 2.75
   2  0.833  0.583  0.408-  22 2.75  26 2.75  32 2.75  33 2.75  36 2.75  21 2.75   7 2.75  25 2.75
                            30 2.75
   3  0.667  0.417  0.500-  10 2.75  29 2.75   6 2.75  23 2.75   5 2.75  30 2.75  48 2.75  25 2.75
                             9 2.75   7 2.75  33 2.75  31 2.75
   4  0.750  0.000  0.592-   5 2.75  44 2.75  17 2.75  29 2.75   8 2.75  46 2.75  27 2.75  39 2.75
                            42 2.75
   5  0.667  0.167  0.500-  41 2.75   4 2.75   8 2.75   9 2.75   3 2.75  42 2.75  44 2.75  40 2.75
                            23 2.75  10 2.75  28 2.75  29 2.75
   6  0.500  0.500  0.592-  48 2.75   3 2.75  16 2.75  29 2.75  34 2.75   8 2.75  45 2.75  31 2.75
                             9 2.75
   7  0.583  0.583  0.408-  30 2.75  11 2.75  10 2.75  33 2.75  36 2.75  13 2.75   2 2.75   3 2.75
                            48 2.75
   8  0.500  0.250  0.592-   9 2.75   5 2.75   6 2.75   4 2.75  39 2.75  45 2.75  14 2.75  29 2.75
                            40 2.75
   9  0.417  0.417  0.500-  15 2.75   8 2.75  45 2.75   5 2.75  40 2.75  12 2.75  48 2.75  35 2.75
                             3 2.75  13 2.75  10 2.75   6 2.75
  10  0.583  0.333  0.408-   3 2.75   7 2.75  13 2.75  28 2.75  41 2.75  33 2.75  15 2.75   5 2.75
                             9 2.75
  11  0.333  0.833  0.408-  47 2.75   7 2.75  13 2.75  19 2.75   1 2.75  36 2.75  24 2.75  48 2.75
                            43 2.75
  12  0.167  0.667  0.500-  21 2.75  45 2.75  46 2.75  43 2.75  44 2.75   9 2.75  35 2.75  22 2.75
                            48 2.75  24 2.75  16 2.75  13 2.75
  13  0.333  0.583  0.408-  48 2.75  11 2.75  15 2.75  24 2.75  10 2.75   7 2.75  21 2.75   9 2.75
                            12 2.75
  14  0.250  0.250  0.592-  35 2.75  40 2.75  38 2.75  39 2.75  20 2.75  45 2.75   8 2.75  37 2.75
                            18 2.75
  15  0.333  0.333  0.408-   9 2.75  13 2.75  19 2.75  21 2.75  41 2.75  26 2.75  10 2.75  40 2.75
                            35 2.75
  16  0.250  0.750  0.592-  43 2.75  48 2.75  27 2.75   6 2.75  45 2.75  20 2.75  46 2.75  34 2.75
                            12 2.75
  17  0.750  0.750  0.592-  42 2.75  22 2.75  31 2.75  38 2.75  39 2.75   4 2.75  34 2.75  46 2.75
                            30 2.75
  18  0.167  0.167  0.500-   1 2.75  20 2.75  37 2.75  35 2.75  25 2.75  43 2.75  47 2.75  23 2.75
                            40 2.75  26 2.75  19 2.75  14 2.75
  19  0.333  0.083  0.408-  40 2.75  15 2.75  26 2.75  36 2.75  11 2.75   1 2.75  41 2.75  47 2.75
                            18 2.75
  20  0.250  0.000  0.592-  18 2.75  47 2.75  14 2.75  34 2.75  37 2.75  16 2.75  39 2.75  27 2.75
                            43 2.75
  21  0.083  0.583  0.408-  12 2.75  15 2.75  24 2.75  26 2.75  32 2.75   2 2.75  13 2.75  35 2.75
                            22 2.75
  22  0.917  0.667  0.500-   2 2.75  38 2.75  17 2.75  35 2.75  25 2.75  42 2.75  44 2.75  12 2.75
                            30 2.75  32 2.75  21 2.75  46 2.75
  23  0.917  0.167  0.500-  28 2.75  27 2.75  29 2.75  25 2.75   3 2.75  43 2.75  44 2.75   5 2.75
                            18 2.75  33 2.75   1 2.75  37 2.75
  24  0.083  0.833  0.408-  43 2.75  13 2.75  21 2.75  28 2.75   1 2.75  32 2.75  11 2.75  12 2.75
                            44 2.75
  25  0.917  0.417  0.500-  33 2.75  37 2.75  31 2.75  30 2.75  18 2.75  22 2.75  23 2.75  35 2.75
                             3 2.75   2 2.75  26 2.75  38 2.75
  26  0.083  0.333  0.408-  35 2.75   2 2.75  19 2.75  21 2.75   1 2.75  33 2.75  15 2.75  18 2.75
                            25 2.75
  27  0.000  0.000  0.592-  23 2.75  43 2.75  29 2.75  37 2.75  16 2.75  46 2.75  20 2.75   4 2.75
                            44 2.75
  28  0.833  0.083  0.408-  23 2.75  10 2.75  24 2.75  32 2.75  33 2.75   1 2.75  41 2.75  44 2.75
                             5 2.75
  29  0.750  0.250  0.592-   3 2.75  23 2.75   6 2.75   4 2.75  27 2.75  31 2.75   8 2.75  37 2.75
                             5 2.75
  30  0.667  0.667  0.500-   7 2.75  31 2.75  34 2.75   3 2.75  25 2.75  42 2.75  47 2.75  22 2.75
                            48 2.75  36 2.75   2 2.75  17 2.75
  31  0.750  0.500  0.592-  30 2.75  25 2.75  29 2.75  17 2.75  34 2.75  37 2.75   6 2.75  38 2.75
                             3 2.75
  32  0.833  0.833  0.408-  44 2.75  21 2.75  28 2.75  41 2.75   2 2.75  24 2.75  36 2.75  22 2.75
                            42 2.75
  33  0.833  0.333  0.408-  25 2.75   2 2.75   7 2.75   1 2.75  28 2.75  26 2.75  10 2.75  23 2.75
                             3 2.75
  34  0.500  0.750  0.592-  47 2.75  30 2.75   6 2.75  31 2.75  39 2.75  20 2.75  17 2.75  16 2.75
                            48 2.75
  35  0.167  0.417  0.500-  26 2.75  14 2.75  38 2.75  22 2.75  12 2.75  18 2.75  40 2.75  25 2.75
                             9 2.75  21 2.75  15 2.75  45 2.75
  36  0.583  0.833  0.408-  42 2.75   7 2.75  19 2.75  41 2.75   2 2.75  11 2.75  32 2.75  30 2.75
                            47 2.75
  37  0.000  0.250  0.592-  25 2.75  18 2.75  20 2.75  27 2.75  31 2.75  38 2.75  14 2.75  29 2.75
                            23 2.75
  38  0.000  0.500  0.592-  22 2.75  35 2.75  14 2.75  17 2.75  37 2.75  46 2.75  45 2.75  31 2.75
                            25 2.75
  39  0.500  0.000  0.592-  40 2.75  42 2.75  17 2.75  34 2.75   8 2.75  14 2.75  20 2.75   4 2.75
                            47 2.75
  40  0.417  0.167  0.500-  19 2.75  39 2.75  14 2.75  35 2.75   9 2.75  42 2.75  47 2.75  18 2.75
                             5 2.75  15 2.75   8 2.75  41 2.75
  41  0.583  0.083  0.408-   5 2.75  10 2.75  15 2.75  32 2.75  36 2.75  19 2.75  28 2.75  42 2.75
                            40 2.75
  42  0.667  0.917  0.500-  36 2.75  17 2.75  39 2.75  30 2.75   5 2.75  22 2.75  40 2.75  44 2.75
                            47 2.75  41 2.75   4 2.75  32 2.75
  43  0.167  0.917  0.500-  24 2.75  16 2.75  27 2.75  23 2.75  12 2.75  18 2.75  48 2.75  47 2.75
                            44 2.75   1 2.75  11 2.75  20 2.75
  44  0.917  0.917  0.500-  32 2.75  46 2.75   4 2.75  22 2.75  23 2.75   5 2.75  12 2.75  43 2.75
                            42 2.75  28 2.75  27 2.75  24 2.75
  45  0.250  0.500  0.592-  12 2.75   9 2.75   8 2.75  14 2.75  16 2.75  46 2.75  38 2.75   6 2.75
                            35 2.75
  46  0.000  0.750  0.592-  44 2.75  12 2.75  27 2.75  38 2.75   4 2.75  45 2.75  16 2.75  17 2.75
                            22 2.75
  47  0.417  0.917  0.500-  11 2.75  34 2.75  20 2.75  30 2.75  18 2.75  40 2.75  48 2.75  43 2.75
                            42 2.75  19 2.75  36 2.75  39 2.75
  48  0.417  0.667  0.500-  13 2.75   6 2.75  16 2.75   3 2.75   9 2.75  43 2.75  47 2.75  12 2.75
                            30 2.75  11 2.75   7 2.75  34 2.75

  LATTYP: Found a hexagonal cell.
 ALAT       =    11.0025815153
 C/A-ratio  =     2.2260035120

  Lattice vectors:

 A1 = (   5.5012907576,  -9.5285150994,   0.0000000000)
 A2 = ( -11.0025815153,   0.0000000000,   0.0000000000)
 A3 = (   0.0000000000,   0.0000000000, -24.4917850943)

Analysis of symmetry for initial positions (statically):
 Subroutine PRICEL returns:
 Original cell was already a primitive cell.

 Routine SETGRP: Setting up the symmetry group for a
 hexagonal supercell.

 Subroutine GETGRP returns: Found  1 space group operations
 (whereof  1 operations were pure point group operations)
 out of a pool of 24 trial point group operations.

The static configuration has the point symmetry C_1 .

Analysis of symmetry for dynamics (positions and initial velocities):
 Subroutine PRICEL returns:
 Original cell was already a primitive cell.

 Routine SETGRP: Setting up the symmetry group for a
 hexagonal supercell.

 Subroutine GETGRP returns: Found  1 space group operations
 (whereof  1 operations were pure point group operations)
 out of a pool of 24 trial point group operations.

The dynamic configuration has the point symmetry C_1 .

 KPOINTS: Automatic mesh

Automatic generation of k-mesh.
Space group operators:
 irot       det(A)        alpha          n_x          n_y          n_z        tau_x        tau_y        tau_z
    1     1.000000     0.000000     1.000000     0.000000     0.000000     0.000000     0.000000     0.000000

 Subroutine IBZKPT returns following result:

 Found      6 irreducible k-points:

 Following reciprocal coordinates:
            Coordinates               Weight
  0.250000  0.250000  0.000000     16.000000
  0.000000  0.250000  0.000000     16.000000
 -0.250000  0.000000  0.000000     16.000000
 -0.250000  0.250000  0.000000     16.000000
  0.500000 -0.250000  0.000000     16.000000
 -0.250000  0.500000  0.000000     16.000000

 Following cartesian coordinates:
            Coordinates               Weight
  0.022722  0.013119  0.000000     16.000000
  0.000000  0.026237  0.000000     16.000000
[...]
  0.5352  0.5352  0.2170

[...]

----------------------------------------- Iteration   23(   5)  ---------------------------------------

 eigenvalue-minimisations  :  2754
 total energy-change (2. order) : 0.2268498E-06  (-0.4401380E-06)
 number of electron     503.9999488 magnetization
 augmentation part      197.2910782 magnetization

 DIPCOR: dipole corrections for dipol
 direction  3 min pos     1,
 dipolmoment           0.000000      0.000000      0.005764 electrons x Angstroem
 Tr[quadrupol]    -10278.318846

 energy correction for charged system         0.000000 eV
 dipol+quadrupol energy correction           -0.000001 eV
 added-field ion interaction          0.003021 eV  (added to PSCEN)

  free energy =  -0.192575144119E+03  energy without entropy=  -0.192323539026E+03

 average (electrostatic) potential at core
  the test charge radii are     1.2098  1.1199
  (the norm of the test charge is              1.0000)
       1 -73.9458       2 -73.8926       3 -74.1894       4 -73.8358       5 -74.1709
       6 -73.9064       7 -74.0325       8 -73.9018       9 -74.1903      10 -73.9374
      11 -74.0723      12 -74.1639      13 -74.1079      14 -73.9084      15 -74.0151
      16 -73.9395      17 -73.8473      18 -74.1321      19 -73.9956      20 -73.9317
      21 -73.9401      22 -74.1225      23 -74.1662      24 -73.9801      25 -80.9238
      26 -80.7990      27 -80.8334      28 -80.8431      29 -80.8316      30 -80.9637
      31 -80.8424      32 -80.8126      33 -80.8030      34 -80.8320      35 -80.9121
      36 -80.8482      37 -80.8265      38 -80.8638      39 -80.8079      40 -80.9235
      41 -80.8763      42 -80.9318      43 -80.9034      44 -80.9690      45 -80.8418
      46 -80.8311      47 -80.9462      48 -80.8993

 E-fermi :  -1.0965     XC(G=0):  -4.5480     alpha+bet : -4.5211

[...]

 k-point     6 :      -0.2500    0.5000    0.0000
  band No.  band energies     occupation
      1      -8.5333      2.00000
      2      -8.0358      2.00000
      3      -7.8395      2.00000
      4      -7.4664      2.00000
      5      -7.1918      2.00000
      6      -7.0941      2.00000
      7      -7.0114      2.00000
      8      -6.9332      2.00000
      9      -6.8901      2.00000
     10      -6.8334      2.00000
     11      -6.7678      2.00000
     12      -6.7384      2.00000
     13      -6.6645      2.00000
     14      -6.6089      2.00000
     15      -6.5721      2.00000
     16      -6.5283      2.00000
     17      -6.4823      2.00000
     18      -6.4658      2.00000
     19      -6.4248      2.00000
     20      -6.3867      2.00000
     21      -6.3461      2.00000
     22      -6.3306      2.00000
     23      -6.3018      2.00000
     24      -6.2857      2.00000
     25      -6.2573      2.00000
     26      -6.2320      2.00000
     27      -6.1973      2.00000
     28      -6.1757      2.00000
     29      -6.1449      2.00000
     30      -6.1355      2.00000
     31      -6.1019      2.00000
     32      -6.0933      2.00000
     33      -6.0554      2.00000
     34      -6.0367      2.00000
     35      -6.0067      2.00000
     36      -5.9894      2.00000
     37      -5.9691      2.00000
     38      -5.9536      2.00000
     39      -5.9209      2.00000
     40      -5.8920      2.00000
     41      -5.8706      2.00000
     42      -5.8271      2.00000
     43      -5.8216      2.00000
     44      -5.8091      2.00000
     45      -5.7690      2.00000
     46      -5.7376      2.00000
     47      -5.7189      2.00000
     48      -5.6998      2.00000
     49      -5.6334      2.00000
     50      -5.6154      2.00000
     51      -5.5650      2.00000
     52      -5.5509      2.00000
     53      -5.5116      2.00000
     54      -5.4905      2.00000
     55      -5.4530      2.00000
     56      -5.4106      2.00000
     57      -5.3837      2.00000
     58      -5.3516      2.00000
     59      -5.3346      2.00000
     60      -5.2968      2.00000
[...]
    292       4.1783      0.00000
    293       4.4687      0.00000
    294       4.5360      0.00000
    295       4.6088      0.00000
    296       4.6329      0.00000
    297       4.6762      0.00000
    298       4.7831      0.00000
    299       4.8086      0.00000
    300       4.8898      0.00000
    301       4.9440      0.00000
    302       5.0145      0.00000
    303       5.0649      0.00000
    304       5.0986      0.00000
    305       5.2217      0.00000
    306       5.2404      0.00000

 soft charge-density along one line, spin component           1
         0         1         2         3         4         5         6         7         8         9
 total charge-density along one line

------------------------ aborting loop because EDIFF is reached ----------------------------------------

 VOLUME and BASIS-vectors are now :
  energy-cutoff  :      400.00
  volume of cell :     2567.68
      direct lattice vectors                 reciprocal lattice vectors
    11.002581515  0.000000000  0.000000000     0.090887761 -0.052474073  0.000000000
     5.501290758  9.528515099  0.000000000     0.000000000  0.104948147  0.000000000
     0.000000000  0.000000000 24.491785094     0.000000000  0.000000000  0.040830017

  length of vectors
    11.002581515 11.002581515 24.491785094     0.104948147  0.104948147  0.040830017

 FORCES acting on ions
    electron-ion (+dipol)            ewald-force                    non-local-force                 convergence-correction
   0.315E-01 -.287E+01 0.228E+04   -.797E+00 0.368E+01 -.228E+04   0.764E+00 -.800E+00 0.979E-02   -.551E-02 -.502E-02 -.154E-01
   0.391E+01 -.151E+02 0.226E+04   -.408E+01 0.148E+02 -.226E+04   0.173E+00 0.247E+00 -.324E+00   -.784E-02 0.315E-01 0.886E-02
   0.201E+02 -.532E+01 -.661E+01   -.192E+02 0.601E+01 0.721E+01   -.882E+00 -.716E+00 -.540E+00   -.135E-01 0.242E-01 -.539E-01
   -.118E+02 0.637E+01 -.231E+04   0.124E+02 -.652E+01 0.231E+04   -.545E+00 0.159E+00 0.225E+00   -.262E-01 0.751E-03 -.599E-01
   0.855E+01 -.905E+01 -.547E+02   -.904E+01 0.808E+01 0.541E+02   0.508E+00 0.992E+00 0.660E+00   -.238E-01 -.226E-01 -.836E-01
   -.813E+01 -.571E+01 -.229E+04   0.874E+01 0.595E+01 0.229E+04   -.592E+00 -.248E+00 -.106E-01   -.165E-01 -.132E-02 -.595E-02
   -.660E+01 -.995E+01 0.222E+04   0.702E+01 0.100E+02 -.222E+04   -.425E+00 -.128E+00 -.110E+00   0.110E-01 0.259E-01 0.125E-02
   0.348E+01 -.728E+01 -.230E+04   -.360E+01 0.708E+01 0.230E+04   0.140E+00 0.212E+00 -.576E-02   -.501E-02 -.180E-02 -.496E-01
   -.943E+01 0.744E+00 -.212E+02   0.854E+01 -.502E+00 0.218E+02   0.888E+00 -.247E+00 -.517E+00   0.158E-01 -.259E-02 -.415E-01
   -.938E+00 0.192E+02 0.229E+04   0.144E+01 -.200E+02 -.229E+04   -.507E+00 0.808E+00 0.309E+00   -.322E-02 -.158E-01 -.382E-01
   -.116E+02 -.527E+01 0.218E+04   0.121E+02 0.526E+01 -.218E+04   -.538E+00 0.133E-01 -.664E+00   0.221E-01 0.408E-03 -.721E-02
   -.821E+01 0.136E+01 0.536E+01   0.832E+01 -.115E+01 -.417E+01   -.125E+00 -.212E+00 -.115E+01   0.108E-01 0.120E-01 -.394E-01
   -.593E+01 -.927E+00 0.224E+04   0.605E+01 0.119E+01 -.224E+04   -.130E+00 -.279E+00 0.114E-01   0.146E-01 0.791E-02 -.119E-01
   0.162E+02 -.109E+02 -.225E+04   -.160E+02 0.116E+02 0.225E+04   -.186E+00 -.632E+00 0.220E+00   -.158E-02 -.928E-02 -.274E-01
   -.254E+01 0.186E+02 0.221E+04   0.193E+01 -.191E+02 -.221E+04   0.588E+00 0.472E+00 -.161E+00   0.202E-01 -.200E-01 -.153E-01
   0.508E+01 -.307E+01 -.225E+04   -.538E+01 0.316E+01 0.225E+04   0.294E+00 -.682E-01 0.191E+00   0.122E-01 -.111E-01 -.875E-02
   0.146E+01 0.193E+02 -.229E+04   -.204E+01 -.195E+02 0.229E+04   0.605E+00 0.166E+00 0.297E+00   -.119E-01 -.230E-02 -.575E-01
   -.619E+01 0.108E+02 -.737E+01   0.647E+01 -.103E+02 0.730E+01   -.299E+00 -.492E+00 0.103E+00   0.261E-01 -.141E-01 -.341E-01
   -.162E+02 0.944E+01 0.222E+04   0.168E+02 -.962E+01 -.222E+04   -.665E+00 0.206E+00 -.315E+00   0.395E-01 -.209E-01 -.249E-01
   0.834E+01 -.353E+01 -.225E+04   -.821E+01 0.326E+01 0.225E+04   -.136E+00 0.292E+00 0.466E+00   0.203E-02 -.115E-01 -.413E-01
   0.992E+01 -.627E+01 0.229E+04   -.103E+02 0.598E+01 -.229E+04   0.361E+00 0.275E+00 0.242E+00   -.361E-02 0.170E-01 -.768E-02
   -.148E+01 0.276E+01 -.357E+01   0.131E+01 -.271E+01 0.411E+01   0.194E+00 -.679E-01 -.501E+00   -.232E-01 0.537E-02 -.514E-01
   -.475E+01 0.541E+01 -.164E+01   0.482E+01 -.577E+01 0.234E+01   -.726E-01 0.372E+00 -.629E+00   -.489E-02 -.774E-02 -.716E-01
   0.104E+02 -.123E+02 0.222E+04   -.112E+02 0.128E+02 -.222E+04   0.782E+00 -.513E+00 -.140E+00   -.148E-02 0.132E-01 -.117E-01
   -.331E+01 -.270E+01 0.207E+02   0.350E+01 0.281E+01 -.203E+02   -.186E+00 -.132E+00 -.359E+00   0.405E-02 0.220E-01 -.193E-01
   0.368E+01 0.412E+01 0.197E+04   -.392E+01 -.387E+01 -.197E+04   0.236E+00 -.246E+00 -.166E+01   0.671E-02 -.560E-02 0.244E-01
   -.771E+01 -.401E+01 -.199E+04   0.741E+01 0.405E+01 0.198E+04   0.303E+00 -.260E-01 0.180E+01   0.455E-02 -.185E-01 -.376E-01
   0.153E+02 0.686E+01 0.196E+04   -.155E+02 -.713E+01 -.196E+04   0.200E+00 0.273E+00 -.141E+01   -.110E-01 -.613E-02 -.216E-01
   -.220E+02 -.563E+01 -.201E+04   0.224E+02 0.554E+01 0.201E+04   -.407E+00 0.899E-01 0.127E+01   -.223E-01 0.107E-02 -.401E-01
   0.954E+00 0.830E+00 -.148E+02   -.137E+01 -.431E+00 0.152E+02   0.425E+00 -.437E+00 -.381E+00   -.637E-02 0.302E-01 -.635E-01
   -.100E+02 0.637E+01 -.198E+04   0.103E+02 -.640E+01 0.198E+04   -.299E+00 0.132E-01 0.180E+01   -.721E-02 0.167E-01 -.335E-01
   0.137E+02 -.191E+02 0.194E+04   -.139E+02 0.198E+02 -.194E+04   0.223E+00 -.638E+00 -.183E+01   -.189E-01 0.230E-01 -.122E-01
   -.161E+01 0.589E+01 0.198E+04   0.196E+01 -.609E+01 -.198E+04   -.333E+00 0.194E+00 -.132E+01   -.343E-02 0.132E-02 -.518E-02
   -.323E+01 0.282E+01 -.197E+04   0.349E+01 -.277E+01 0.197E+04   -.260E+00 -.433E-01 0.189E+01   -.670E-02 -.246E-02 -.723E-01
   -.693E+01 0.238E+00 0.170E+02   0.662E+01 -.425E+00 -.165E+02   0.300E+00 0.190E+00 -.495E+00   -.850E-02 -.815E-02 -.212E-01
   -.124E+02 -.136E+02 0.192E+04   0.127E+02 0.137E+02 -.192E+04   -.351E+00 -.149E+00 -.187E+01   0.146E-01 0.202E-01 -.170E-01
   0.316E+01 -.835E+01 -.200E+04   -.362E+01 0.877E+01 0.200E+04   0.450E+00 -.418E+00 0.157E+01   0.146E-01 -.569E-02 -.139E-01
   0.153E+01 0.556E+01 -.197E+04   -.159E+01 -.578E+01 0.197E+04   0.660E-01 0.215E+00 0.180E+01   -.476E-02 0.210E-02 -.753E-02
   0.109E+02 0.565E+01 -.199E+04   -.110E+02 -.598E+01 0.199E+04   0.776E-01 0.334E+00 0.191E+01   -.321E-02 -.240E-02 -.821E-01
   0.264E+01 -.831E+01 -.399E+02   -.252E+01 0.772E+01 0.399E+02   -.130E+00 0.614E+00 0.820E-01   0.695E-02 -.269E-01 -.768E-01
   -.140E-01 0.179E+02 0.193E+04   0.261E+00 -.184E+02 -.193E+04   -.247E+00 0.520E+00 -.173E+01   -.495E-02 -.205E-01 -.339E-01
   -.332E+01 -.701E+00 -.844E+02   0.280E+01 0.921E+00 0.836E+02   0.544E+00 -.228E+00 0.903E+00   -.166E-01 0.131E-01 -.909E-01
   -.535E+01 0.430E+01 -.489E+01   0.522E+01 -.451E+01 0.544E+01   0.108E+00 0.220E+00 -.501E+00   0.219E-01 -.142E-01 -.418E-01
   -.125E+01 0.161E+01 -.347E+02   0.130E+01 -.168E+01 0.347E+02   -.319E-01 0.704E-01 0.577E-01   -.206E-01 0.371E-02 -.728E-01
   0.158E+02 -.773E+01 -.199E+04   -.164E+02 0.778E+01 0.198E+04   0.630E+00 -.403E-01 0.154E+01   0.108E-01 -.946E-02 -.712E-02
   -.268E+01 0.114E+02 -.200E+04   0.296E+01 -.113E+02 0.200E+04   -.264E+00 -.150E+00 0.157E+01   -.794E-02 -.890E-02 -.358E-01
   0.961E+01 -.510E+01 -.316E+02   -.902E+01 0.452E+01 0.321E+02   -.602E+00 0.602E+00 -.438E+00   0.145E-01 -.126E-01 -.777E-01
   0.867E+01 0.521E+01 -.142E+02   -.814E+01 -.456E+01 0.146E+02   -.553E+00 -.665E+00 -.399E+00   0.155E-01 0.178E-01 -.462E-01
   -.468E-01 0.502E-01 0.215E+00   -.167E-12 -.473E-12 0.259E-11   0.964E-01 -.253E-01 0.146E+01   -.224E-02 0.176E-02 -.165E+01

 POSITION                                       TOTAL-FORCE (eV/Angst)
      1.34477      0.81084      9.68550        -0.007941      0.005492     -0.001935
     12.36614      5.54542      9.71936        -0.001346     -0.000448     -0.006909
      9.64485      3.99582     12.24693        -0.005650      0.000024      0.006109
      8.28149     -0.00854     14.83593         0.001004      0.001375      0.001384
      8.23753      1.56252     12.29314        -0.000962     -0.002419      0.000260
      8.28448      4.77770     14.80268         0.001358     -0.001940     -0.010583
      9.63724      5.55357      9.74779        -0.000565     -0.001905     -0.004623
      6.88046      2.38318     14.84465         0.010954      0.007552      0.007043
      6.86293      3.96903     12.26751         0.015364     -0.008257     -0.004319
      8.26365      3.12927      9.65661        -0.011115      0.003067      0.004345
      8.25891      7.94314      9.80457        -0.000455      0.001810     -0.001108
      5.50550      6.36518     12.24498        -0.004064      0.009811      0.003766
      6.87077      5.55091      9.68254         0.002775     -0.006198      0.001553
      4.12321      2.41378     14.74246        -0.005800      0.007087      0.002973
      5.49072      3.14779      9.75205         0.001194     -0.009929     -0.005674
      6.87179      7.15594     14.73750         0.006982      0.003502      0.004304
     12.36591      7.13692     14.77547         0.011528     -0.002162      0.008349
      2.76560      1.60103     12.24091        -0.000476      0.008886      0.003594
      4.14319      0.77668      9.77997         0.010623      0.002821     -0.000335
      2.75999      0.00645     14.73143        -0.008185      0.006584      0.009660
      4.09603      5.54872      9.64204        -0.003327      0.000762     -0.000735
     13.73692      6.35795     12.24428         0.006910     -0.012552     -0.004169
     11.01408      1.57790     12.23978        -0.004261      0.001495     -0.000703
      5.45639      7.95313      9.74689        -0.002278      0.003259     -0.005643
     12.38508      3.99329     12.20513         0.003784     -0.000823      0.001821
      2.73669      3.16744      9.84085         0.004190     -0.005113      0.001512
      0.00399      0.01303     14.62212         0.009529     -0.001115      0.001875
      9.60405      0.77899      9.87987        -0.000537     -0.002792      0.004632
      9.64924      2.38641     14.65499        -0.002916      0.003380     -0.003431
     11.00148      6.36645     12.25358         0.000123     -0.008158      0.005549
     11.02625      4.76087     14.60515         0.004354     -0.000245      0.003688
     13.72369      7.95368      9.92076        -0.007592      0.005492     -0.007977
     10.99531      3.16328      9.83539         0.006643     -0.005619      0.006279
      9.63831      7.14804     14.61044        -0.006997      0.002850      0.002226
      4.12308      3.96807     12.21644        -0.016196     -0.005546     -0.007208
     11.02239      7.93822      9.95150        -0.005259      0.004863      0.002882
      1.36183      2.40955     14.61440         0.006945      0.001235     -0.000999
      2.75248      4.77154     14.58063         0.002288     -0.000688     -0.003690
      5.50394      0.00123     14.65689         0.000303     -0.001404     -0.000233
      5.49860      1.57288     12.28130        -0.003842      0.000003     -0.009039
      6.88616      0.76359      9.94368        -0.006315     -0.003531      0.000622
     12.36154      8.73044     12.33425         0.006101      0.005451     -0.007132
      6.88786      8.73284     12.24646        -0.004054     -0.005547      0.003363
     15.12499      8.73136     12.27636         0.000642      0.000325     -0.003190
      5.49534      4.77585     14.63315        -0.000059      0.006467     -0.001438
      4.13293      7.14518     14.64216         0.005662     -0.003999      0.000713
      9.63920      8.72618     12.27714        -0.005816      0.002108     -0.001109
      8.26819      6.37459     12.25523        -0.003244     -0.005310      0.003679
    total drift:                                0.047311      0.026659      0.025544

  FREE ENERGIE OF THE ION-ELECTRON SYSTEM (eV)
  free  energy   TOTEN  =      -192.57514412 eV

  energy  without entropy=     -192.32353903  energy(sigma->0) =     -192.44934157

 d Force = 0.5555838E-04[ 0.150E-04, 0.961E-04]  d Energy = 0.3899131E-04 0.166E-04
 d Force = 0.1536001E+01[ 0.154E+01, 0.153E+01]  d Ewald  = 0.1535999E+01 0.205E-05

 stress matrix after NEB project (eV)
      0.00000      0.00000      0.00000
      0.00000      0.00000      0.00000
      0.00000      0.00000      0.00000
  FORCES: max atom, RMS     0.018575    0.009310
  FORCE total and by dimension    0.064504    0.016196
  Stress total and by dimension    0.000000    0.000000

 reached required accuracy - stopping structural energy minimisation