 vasp.5.4.1 24Jun15 (build Mar 14 2019 10:18:33) complex

 executed on INTEL-19.0.2+OPENMPI date 2023.01.31  01:33:18

 INCAR:
 POTCAR:    PAW_PBE Au 04Oct2007
 POTCAR:    PAW_PBE Pd 04Jan2005
 POTCAR:    PAW_PBE Au 04Oct2007

 POTCAR:    PAW_PBE Pd 04Jan2005

 Optimization of the real space projectors (new method)

 maximal supplied QI-value         = 15.12
 optimisation between [QCUT,QGAM] = [ 10.13, 20.41] = [ 28.73,116.64] Ry
 Optimized for a Real-space Cutoff    1.51 Angstroem

   l    n(q)    QCUT    max X(q) W(low)/X(q) W(high)/X(q)  e(spline)
   2      8    10.129    60.898    0.46E-03    0.46E-03    0.14E-06
   2      8    10.129    58.894    0.47E-03    0.47E-03    0.14E-06
   0      9    10.129   109.617    0.16E-03    0.11E-03    0.54E-07
   0      9    10.129    75.026    0.15E-03    0.11E-03    0.52E-07
   1      9    10.129    16.344    0.96E-04    0.15E-03    0.14E-06
   1      9    10.129    10.160    0.81E-04    0.12E-03    0.11E-06
 Optimization of the real space projectors (new method)

 maximal supplied QI-value         = 14.36
 optimisation between [QCUT,QGAM] = [ 10.20, 20.39] = [ 29.12,116.47] Ry
 Optimized for a Real-space Cutoff    1.51 Angstroem

   l    n(q)    QCUT    max X(q) W(low)/X(q) W(high)/X(q)  e(spline)
   2      8    10.197    59.108    0.26E-03    0.14E-03    0.96E-07
   2      8    10.197    58.101    0.27E-03    0.14E-03    0.98E-07
   0      9    10.197   102.235    0.54E-04    0.60E-05    0.72E-07
   0      9    10.197    58.388    0.52E-04    0.60E-05    0.68E-07
   1      9    10.197    22.191    0.18E-03    0.25E-03    0.79E-07
   1      9    10.197    15.590    0.15E-03    0.21E-03    0.69E-07
  PAW_PBE Au 04Oct2007                  :
  PAW_PBE Pd 04Jan2005                  :

 POSCAR: Au Pd
  positions in cartesian coordinates
 exchange correlation table for  LEXCH =        8
   RHO(1)=    0.500       N(1)  =     2000
   RHO(2)=  100.500       N(2)  =     4000

 VTST: version 3.2, (02/03/18)

 CHAIN: initializing optimizer

 OPT: Using VASP Conjugate-Gradient optimizer
 CHAIN: Read ICHAIN            0

 POSCAR: Au Pd
  positions in cartesian coordinates

 ion  position               nearest neighbor table
   1  0.083  0.083  0.408-  27 2.75   9 2.75  18 2.75   8 2.75  37 2.75  11 2.75  26 2.75  29 2.75
                            39 2.75
   2  0.667  0.667  0.500-  20 2.75  43 2.75  24 2.75  36 2.75   3 2.75  44 2.75  45 2.75   6 2.75
                            19 2.75  15 2.75   4 2.75  48 2.75
   3  0.917  0.417  0.500-   9 2.75  47 2.75  43 2.75  27 2.75  39 2.75   6 2.75   2 2.75  45 2.75
                            14 2.75   4 2.75   7 2.75  37 2.75
   4  0.833  0.583  0.408-   6 2.75   9 2.75  15 2.75  37 2.75  42 2.75  20 2.75  35 2.75   3 2.75
                             2 2.75
   5  0.750  0.250  0.592-  45 2.75  39 2.75  38 2.75  10 2.75  43 2.75  17 2.75  12 2.75  47 2.75
                            41 2.75
   6  0.917  0.667  0.500-   4 2.75   7 2.75  48 2.75  14 2.75  33 2.75  36 2.75   3 2.75  16 2.75
                             2 2.75  42 2.75  35 2.75  25 2.75
   7  0.000  0.500  0.592-   6 2.75  14 2.75  25 2.75  30 2.75  47 2.75  48 2.75  32 2.75  43 2.75
                             3 2.75
   8  0.083  0.833  0.408-  29 2.75  11 2.75   1 2.75  31 2.75  35 2.75  18 2.75  42 2.75  16 2.75
                            33 2.75
   9  0.833  0.333  0.408-   3 2.75   1 2.75   4 2.75  11 2.75  20 2.75  37 2.75  46 2.75  39 2.75
                            45 2.75
  10  0.750  0.000  0.592-  41 2.75  33 2.75  25 2.75   5 2.75  12 2.75  48 2.75  23 2.75  38 2.75
                            36 2.75
  11  0.833  0.083  0.408-  39 2.75   9 2.75   8 2.75  42 2.75  46 2.75  21 2.75   1 2.75  33 2.75
                            41 2.75
  12  0.500  0.250  0.592-  13 2.75  41 2.75  17 2.75  23 2.75  32 2.75  10 2.75   5 2.75  30 2.75
                            22 2.75
  13  0.417  0.417  0.500-  34 2.75  12 2.75  32 2.75  22 2.75  16 2.75  19 2.75  41 2.75  14 2.75
                            45 2.75  31 2.75  17 2.75  46 2.75
  14  0.167  0.417  0.500-  37 2.75  30 2.75   7 2.75  22 2.75  27 2.75   6 2.75  16 2.75  13 2.75
                             3 2.75  35 2.75  32 2.75  34 2.75
  15  0.583  0.833  0.408-  36 2.75  20 2.75  21 2.75  26 2.75   4 2.75  18 2.75  42 2.75   2 2.75
                            44 2.75
  16  0.167  0.667  0.500-  35 2.75  32 2.75  25 2.75  29 2.75  14 2.75  33 2.75  13 2.75  19 2.75
                             6 2.75   8 2.75  31 2.75  40 2.75
  17  0.500  0.500  0.592-  19 2.75  45 2.75   5 2.75  24 2.75  40 2.75  12 2.75  43 2.75  32 2.75
                            13 2.75
  18  0.333  0.833  0.408-  44 2.75  20 2.75  26 2.75  31 2.75   1 2.75   8 2.75  15 2.75  19 2.75
                            29 2.75
  19  0.417  0.667  0.500-  31 2.75  17 2.75  40 2.75  13 2.75  29 2.75  44 2.75  45 2.75   2 2.75
                            16 2.75  18 2.75  24 2.75  20 2.75
  20  0.583  0.583  0.408-   2 2.75   9 2.75  15 2.75  18 2.75  46 2.75  31 2.75   4 2.75  45 2.75
                            19 2.75
  21  0.583  0.083  0.408-  41 2.75  34 2.75  15 2.75  42 2.75  46 2.75  11 2.75  26 2.75  36 2.75
                            22 2.75
  22  0.417  0.167  0.500-  26 2.75  23 2.75  30 2.75  14 2.75  13 2.75  36 2.75  44 2.75  41 2.75
                            27 2.75  34 2.75  12 2.75  21 2.75
  23  0.500  0.000  0.592-  22 2.75  36 2.75  24 2.75  30 2.75  12 2.75  48 2.75  28 2.75  10 2.75
                            44 2.75
  24  0.500  0.750  0.592-  44 2.75   2 2.75  23 2.75  28 2.75  43 2.75  17 2.75  40 2.75  48 2.75
                            19 2.75
  25  0.000  0.750  0.592-  33 2.75  16 2.75   7 2.75  32 2.75  10 2.75  38 2.75  40 2.75  48 2.75
                             6 2.75
  26  0.333  0.083  0.408-  22 2.75  18 2.75  15 2.75  34 2.75  37 2.75  21 2.75   1 2.75  44 2.75
                            27 2.75
  27  0.167  0.167  0.500-   1 2.75  28 2.75  47 2.75   3 2.75  29 2.75  44 2.75  14 2.75  22 2.75
                            39 2.75  37 2.75  26 2.75  30 2.75
  28  0.250  0.000  0.592-  27 2.75  44 2.75  30 2.75  40 2.75  24 2.75  47 2.75  38 2.75  23 2.75
                            29 2.75
  29  0.167  0.917  0.500-   8 2.75  40 2.75  38 2.75  27 2.75  16 2.75  39 2.75  19 2.75  33 2.75
                            44 2.75   1 2.75  28 2.75  18 2.75
  30  0.250  0.250  0.592-  14 2.75  22 2.75   7 2.75  23 2.75  28 2.75  32 2.75  12 2.75  47 2.75
                            27 2.75
  31  0.333  0.583  0.408-  19 2.75  18 2.75   8 2.75  34 2.75  46 2.75  35 2.75  20 2.75  13 2.75
                            16 2.75
  32  0.250  0.500  0.592-  16 2.75  13 2.75  12 2.75  25 2.75  30 2.75  40 2.75  17 2.75   7 2.75
                            14 2.75
  33  0.917  0.917  0.500-  42 2.75  25 2.75  10 2.75   6 2.75  39 2.75  41 2.75  16 2.75  36 2.75
                            29 2.75  11 2.75  38 2.75   8 2.75
  34  0.333  0.333  0.408-  13 2.75  21 2.75  26 2.75  31 2.75  35 2.75  37 2.75  46 2.75  22 2.75
                            14 2.75
  35  0.083  0.583  0.408-  16 2.75   8 2.75  34 2.75  37 2.75  42 2.75  31 2.75   4 2.75  14 2.75
                             6 2.75
  36  0.667  0.917  0.500-  15 2.75  48 2.75  23 2.75  22 2.75   6 2.75  41 2.75   2 2.75  44 2.75
                            33 2.75  21 2.75  10 2.75  42 2.75
  37  0.083  0.333  0.408-  14 2.75   4 2.75   1 2.75  26 2.75  35 2.75  34 2.75   9 2.75  27 2.75
                             3 2.75
  38  0.000  0.000  0.592-  39 2.75  29 2.75   5 2.75  25 2.75  40 2.75  47 2.75  10 2.75  28 2.75
                            33 2.75
  39  0.917  0.167  0.500-  11 2.75  38 2.75   5 2.75  29 2.75  33 2.75   3 2.75  45 2.75  41 2.75
                            27 2.75   9 2.75   1 2.75  47 2.75
  40  0.250  0.750  0.592-  29 2.75  19 2.75  28 2.75  17 2.75  32 2.75  38 2.75  24 2.75  25 2.75
                            16 2.75
  41  0.667  0.167  0.500-  21 2.75  10 2.75  12 2.75  13 2.75  33 2.75  36 2.75  45 2.75  39 2.75
                            22 2.75  46 2.75  11 2.75   5 2.75
  42  0.833  0.833  0.408-  33 2.75  11 2.75  21 2.75   4 2.75  35 2.75  15 2.75   8 2.75   6 2.75
                            36 2.75
  43  0.750  0.500  0.592-   2 2.75   3 2.75   5 2.75  24 2.75  47 2.75  48 2.75  17 2.75   7 2.75
                            45 2.75
  44  0.417  0.917  0.500-  18 2.75  24 2.75  28 2.75  22 2.75   2 2.75  27 2.75  19 2.75  29 2.75
                            36 2.75  26 2.75  15 2.75  23 2.75
  45  0.667  0.417  0.500-  46 2.75   5 2.75  17 2.75  19 2.75  39 2.75  41 2.75   2 2.75  13 2.75
                             3 2.75  20 2.75  43 2.75   9 2.75
  46  0.583  0.333  0.408-  45 2.75  20 2.75  21 2.75  31 2.75  11 2.75  34 2.75   9 2.75  41 2.75
                            13 2.75
  47  0.000  0.250  0.592-   3 2.75  27 2.75   7 2.75  28 2.75  38 2.75  43 2.75   5 2.75  30 2.75
                            39 2.75
  48  0.750  0.750  0.592-  36 2.75   6 2.75  10 2.75  23 2.75   7 2.75  43 2.75  24 2.75  25 2.75
                             2 2.75

  LATTYP: Found a hexagonal cell.
 ALAT       =    11.0025815153
 C/A-ratio  =     2.2260035120

  Lattice vectors:

 A1 = (   5.5012907576,  -9.5285150994,   0.0000000000)
 A2 = ( -11.0025815153,   0.0000000000,   0.0000000000)
 A3 = (   0.0000000000,   0.0000000000, -24.4917850943)

Analysis of symmetry for initial positions (statically):
 Subroutine PRICEL returns:
 Original cell was already a primitive cell.

 Routine SETGRP: Setting up the symmetry group for a
 hexagonal supercell.

 Subroutine GETGRP returns: Found  1 space group operations
 (whereof  1 operations were pure point group operations)
 out of a pool of 24 trial point group operations.

The static configuration has the point symmetry C_1 .

Analysis of symmetry for dynamics (positions and initial velocities):
 Subroutine PRICEL returns:
 Original cell was already a primitive cell.

[...]

The dynamic configuration has the point symmetry C_1 .

Analysis of constrained symmetry for selective dynamics:
 Subroutine PRICEL returns:
 Original cell was already a primitive cell.

 Routine SETGRP: Setting up the symmetry group for a
 hexagonal supercell.

 Subroutine GETGRP returns: Found  1 space group operations
 (whereof  1 operations were pure point group operations)
 out of a pool of 24 trial point group operations.

The constrained configuration has the point symmetry C_1 .

 KPOINTS: Automatic mesh

Automatic generation of k-mesh.
Space group operators:
 irot       det(A)        alpha          n_x          n_y          n_z        tau_x        tau_y        tau_z
    1     1.000000     0.000000     1.000000     0.000000     0.000000     0.000000     0.000000     0.000000

 Subroutine IBZKPT returns following result:

 Found      6 irreducible k-points:

 Following reciprocal coordinates:
            Coordinates               Weight
  0.250000  0.250000  0.000000     16.000000
  0.000000  0.250000  0.000000     16.000000
 -0.250000  0.000000  0.000000     16.000000
 -0.250000  0.250000  0.000000     16.000000
  0.500000 -0.250000  0.000000     16.000000
[...]
  0.6575  0.2910  0.1284

[...]

----------------------------------------- Iteration   20(   5)  ---------------------------------------

 eigenvalue-minimisations  :  1934
 total energy-change (2. order) : 0.3137247E-06  (-0.6606549E-07)
 number of electron     503.9999197 magnetization
 augmentation part      197.3483798 magnetization

 DIPCOR: dipole corrections for dipol
 direction  3 min pos     1,
 dipolmoment           0.000000      0.000000      0.025017 electrons x Angstroem
 Tr[quadrupol]    -10314.654058

 energy correction for charged system         0.000000 eV
 dipol+quadrupol energy correction           -0.000022 eV
 added-field ion interaction         -0.175457 eV  (added to PSCEN)

  free energy =  -0.192086128583E+03  energy without entropy=  -0.191846080157E+03

 average (electrostatic) potential at core
  the test charge radii are     1.2098  1.1199
  (the norm of the test charge is              1.0000)
       1 -74.0067       2 -74.2077       3 -74.1516       4 -74.0214       5 -73.9146
       6 -74.1816       7 -73.7986       8 -73.9712       9 -74.0311      10 -73.9289
      11 -73.9994      12 -73.9641      13 -74.1664      14 -74.1623      15 -74.0325
      16 -74.1915      17 -73.9276      18 -74.0126      19 -74.2077      20 -74.0806
      21 -73.9645      22 -74.1506      23 -73.9626      24 -73.9302      25 -80.8326
      26 -80.7172      27 -80.9278      28 -80.8453      29 -80.9234      30 -80.7846
      31 -80.7258      32 -80.7927      33 -80.9020      34 -80.7136      35 -80.7278
      36 -80.8796      37 -80.7465      38 -80.7981      39 -80.9182      40 -80.8279
      41 -80.8623      42 -80.7423      43 -80.8431      44 -80.9160      45 -80.8670
      46 -80.7888      47 -80.8175      48 -80.8270

 E-fermi :  -1.0753     XC(G=0):  -4.5470     alpha+bet : -4.5215

[...]

 k-point     6 :      -0.2500    0.5000    0.0000
  band No.  band energies     occupation
      1      -8.6506      2.00000
      2      -8.1684      2.00000
      3      -7.9621      2.00000
      4      -7.4944      2.00000
      5      -7.3570      2.00000
      6      -7.1614      2.00000
      7      -7.1028      2.00000
      8      -7.0133      2.00000
      9      -6.9619      2.00000
     10      -6.9423      2.00000
     11      -6.8140      2.00000
     12      -6.7759      2.00000
     13      -6.7076      2.00000
     14      -6.6678      2.00000
     15      -6.6217      2.00000
     16      -6.5870      2.00000
     17      -6.5395      2.00000
     18      -6.5098      2.00000
     19      -6.4754      2.00000
     20      -6.4628      2.00000
     21      -6.4241      2.00000
     22      -6.3982      2.00000
     23      -6.3604      2.00000
     24      -6.3503      2.00000
     25      -6.3271      2.00000
     26      -6.2703      2.00000
     27      -6.2496      2.00000
     28      -6.2289      2.00000
     29      -6.2104      2.00000
     30      -6.1759      2.00000
     31      -6.1358      2.00000
     32      -6.1157      2.00000
     33      -6.0863      2.00000
     34      -6.0735      2.00000
     35      -6.0551      2.00000
     36      -6.0204      2.00000
     37      -6.0120      2.00000
     38      -5.9705      2.00000
     39      -5.9404      2.00000
     40      -5.9257      2.00000
     41      -5.8997      2.00000
     42      -5.8745      2.00000
     43      -5.8430      2.00000
     44      -5.8286      2.00000
     45      -5.7835      2.00000
     46      -5.7519      2.00000
     47      -5.7272      2.00000
     48      -5.6734      2.00000
     49      -5.6475      2.00000
     50      -5.6170      2.00000
     51      -5.5874      2.00000
     52      -5.5150      2.00000
     53      -5.4841      2.00000
     54      -5.4744      2.00000
     55      -5.4355      2.00000
     56      -5.4052      2.00000
     57      -5.3758      2.00000
     58      -5.3672      2.00000
     59      -5.3394      2.00000
     60      -5.3041      2.00000
[...]
    292       4.2185      0.00000
    293       4.4964      0.00000
    294       4.5938      0.00000
    295       4.6087      0.00000
    296       4.6419      0.00000
    297       4.7092      0.00000
    298       4.8095      0.00000
    299       4.8649      0.00000
    300       4.9309      0.00000
    301       4.9717      0.00000
    302       5.0286      0.00000
    303       5.0677      0.00000
    304       5.1010      0.00000
    305       5.2045      0.00000
    306       5.2569      0.00000

 soft charge-density along one line, spin component           1
         0         1         2         3         4         5         6         7         8         9
 total charge-density along one line

------------------------ aborting loop because EDIFF is reached ----------------------------------------

 VOLUME and BASIS-vectors are now :
  energy-cutoff  :      400.00
  volume of cell :     2567.68
      direct lattice vectors                 reciprocal lattice vectors
    11.002581515  0.000000000  0.000000000     0.090887761 -0.052474073  0.000000000
     5.501290758  9.528515099  0.000000000     0.000000000  0.104948147  0.000000000
     0.000000000  0.000000000 24.491785094     0.000000000  0.000000000  0.040830017

  length of vectors
    11.002581515 11.002581515 24.491785094     0.104948147  0.104948147  0.040830017

 FORCES acting on ions
    electron-ion (+dipol)            ewald-force                    non-local-force                 convergence-correction
   -.153E+02 -.120E+02 0.221E+04   0.165E+02 0.126E+02 -.221E+04   -.798E+00 -.360E+00 -.581E+00   -.888E-03 -.158E-02 0.103E-01
   0.561E+01 -.230E+01 -.832E+02   -.568E+01 0.259E+01 0.843E+02   0.632E-01 -.282E+00 -.113E+01   0.233E-02 -.410E-02 0.621E-03
   -.459E+01 -.498E+01 -.448E+02   0.401E+01 0.377E+01 0.454E+02   0.585E+00 0.121E+01 -.609E+00   0.245E-02 0.276E-04 0.414E-02
   -.207E+02 0.202E+01 0.221E+04   0.218E+02 -.194E+01 -.221E+04   -.715E+00 -.905E-01 0.382E+00   -.366E-02 -.388E-03 0.636E-02
   -.985E+01 0.886E+01 -.224E+04   0.109E+02 -.877E+01 0.224E+04   -.105E+01 -.812E-01 0.589E+00   -.665E-03 -.303E-02 -.709E-02
   0.930E+00 0.694E+01 -.562E+01   -.732E+00 -.553E+01 0.559E+01   -.190E+00 -.140E+01 0.235E-01   -.870E-03 -.404E-02 0.101E-01
   -.848E+01 0.449E+01 -.232E+04   0.862E+01 -.446E+01 0.232E+04   -.145E+00 -.285E-01 -.194E+00   0.156E-02 -.974E-03 0.743E-03
   0.133E+02 0.186E+02 0.222E+04   -.138E+02 -.194E+02 -.222E+04   0.323E+00 0.478E+00 -.233E+00   0.284E-02 0.573E-02 0.766E-02
   0.413E+01 -.181E+01 0.221E+04   -.447E+01 0.162E+01 -.221E+04   0.260E+00 0.171E+00 -.946E-01   0.595E-03 -.185E-02 0.719E-02
   -.808E+01 0.589E+01 -.223E+04   0.860E+01 -.676E+01 0.223E+04   -.515E+00 0.869E+00 0.616E+00   -.361E-02 0.271E-02 -.384E-02
   0.163E+02 -.329E+01 0.221E+04   -.169E+02 0.319E+01 -.221E+04   0.326E+00 0.116E+00 -.664E+00   0.335E-02 0.194E-04 0.802E-02
   0.953E+01 -.116E+00 -.226E+04   -.103E+02 0.675E+00 0.226E+04   0.764E+00 -.564E+00 0.980E-01   -.655E-02 -.124E-02 0.681E-02
   -.860E+01 0.649E+01 0.303E+02   0.937E+01 -.688E+01 -.314E+02   -.769E+00 0.410E+00 0.112E+01   0.643E-02 -.924E-03 0.958E-02
   0.329E+01 -.299E+01 0.290E+02   -.342E+01 0.237E+01 -.296E+02   0.132E+00 0.622E+00 0.616E+00   -.223E-02 0.191E-02 0.150E-01
   -.761E+01 -.115E+02 0.220E+04   0.788E+01 0.121E+02 -.220E+04   -.172E+00 -.426E+00 -.183E+00   -.226E-02 0.234E-03 0.746E-02
   0.142E+01 0.473E+01 0.761E+01   -.141E+01 -.409E+01 -.698E+01   -.149E-01 -.640E+00 -.647E+00   0.731E-03 -.192E-02 0.141E-01
   0.980E+01 -.858E+00 -.230E+04   -.991E+01 0.115E+01 0.230E+04   0.128E+00 -.297E+00 -.619E-01   -.276E-02 0.541E-02 -.770E-02
   -.185E+01 0.362E+00 0.221E+04   0.187E+01 -.357E-01 -.221E+04   -.124E-01 -.258E+00 -.158E+00   0.381E-03 0.322E-02 0.865E-02
   -.842E+01 0.734E+01 -.519E+02   0.827E+01 -.695E+01 0.519E+02   0.141E+00 -.404E+00 0.512E-02   0.214E-02 0.195E-02 0.587E-02
   0.156E+02 0.143E+02 0.220E+04   -.165E+02 -.151E+02 -.220E+04   0.611E+00 0.578E+00 0.128E+00   0.229E-02 0.157E-02 0.642E-02
   0.207E+01 -.112E+02 0.222E+04   -.211E+01 0.114E+02 -.222E+04   0.346E-01 -.104E+00 -.357E+00   0.454E-03 -.290E-02 0.712E-02
   -.101E+02 0.224E+01 0.936E+01   0.964E+01 -.292E+01 -.980E+01   0.492E+00 0.667E+00 0.430E+00   0.539E-03 -.881E-02 0.901E-02
   0.726E+01 -.698E+01 -.224E+04   -.775E+01 0.673E+01 0.224E+04   0.491E+00 0.251E+00 0.293E+00   -.363E-02 0.474E-02 0.523E-03
   0.581E+01 -.105E+02 -.231E+04   -.588E+01 0.108E+02 0.231E+04   0.739E-01 -.262E+00 0.720E-01   -.338E-02 -.926E-03 -.914E-02
   -.768E+01 -.124E+01 -.200E+04   0.797E+01 0.140E+01 0.200E+04   -.294E+00 -.158E+00 0.156E+01   0.233E-03 -.391E-02 -.285E-02
   -.205E+01 -.191E+02 0.202E+04   0.176E+01 0.194E+02 -.202E+04   0.248E+00 -.166E+00 -.169E+01   -.264E-02 -.394E-02 0.826E-02
   -.383E+01 -.299E+01 0.253E+02   0.366E+01 0.247E+01 -.250E+02   0.171E+00 0.512E+00 -.402E+00   -.223E-02 -.530E-02 0.777E-02
   0.804E+01 -.664E+01 -.198E+04   -.858E+01 0.698E+01 0.197E+04   0.537E+00 -.344E+00 0.200E+01   -.151E-02 0.333E-02 -.107E-01
   0.614E+00 0.317E+00 -.142E+02   -.515E+00 0.312E+00 0.155E+02   -.102E+00 -.625E+00 -.134E+01   0.239E-02 0.619E-02 -.195E-02
   0.916E+01 0.558E+00 -.198E+04   -.953E+01 -.584E+00 0.197E+04   0.383E+00 0.213E-01 0.132E+01   -.390E-02 0.802E-03 0.220E-02
   0.106E+02 0.212E+02 0.203E+04   -.108E+02 -.215E+02 -.203E+04   0.158E+00 0.164E+00 -.127E+01   0.295E-02 0.364E-02 0.553E-02
   0.771E+01 -.399E+01 -.198E+04   -.781E+01 0.411E+01 0.198E+04   0.106E+00 -.116E+00 0.106E+01   -.625E-02 0.200E-02 0.377E-02
   0.678E+01 -.438E+01 -.541E+01   -.680E+01 0.471E+01 0.588E+01   0.208E-01 -.325E+00 -.467E+00   0.365E-02 0.769E-02 0.478E-03
   0.492E+01 -.860E+01 0.204E+04   -.505E+01 0.879E+01 -.204E+04   0.449E-01 -.771E-01 -.138E+01   -.247E-03 -.283E-02 0.549E-02
   -.572E+01 0.122E+02 0.203E+04   0.582E+01 -.124E+02 -.203E+04   -.666E-01 0.106E+00 -.146E+01   -.171E-02 0.172E-02 0.543E-02
   0.230E+00 -.764E+01 -.165E+02   0.724E-01 0.757E+01 0.166E+02   -.303E+00 0.827E-01 -.433E-01   -.290E-02 0.212E-02 0.440E-02
   -.218E+02 -.962E+00 0.203E+04   0.223E+02 0.754E+00 -.203E+04   -.271E+00 0.186E+00 -.163E+01   -.426E-02 -.298E-02 0.693E-02
   -.843E+01 0.449E+01 -.199E+04   0.887E+01 -.472E+01 0.198E+04   -.432E+00 0.233E+00 0.206E+01   0.306E-02 0.182E-02 -.137E-01
   0.644E+01 -.336E+01 -.223E+02   -.641E+01 0.299E+01 0.232E+02   -.258E-01 0.366E+00 -.891E+00   0.261E-02 -.768E-02 -.327E-02
   0.117E+02 -.109E+02 -.201E+04   -.122E+02 0.114E+02 0.201E+04   0.494E+00 -.456E+00 0.169E+01   0.451E-03 0.198E-02 -.362E-02
   0.495E+01 -.407E+01 -.180E+02   -.443E+01 0.402E+01 0.176E+02   -.524E+00 0.532E-01 0.451E+00   0.119E-02 -.241E-02 0.369E-02
   -.344E+01 0.483E+01 0.202E+04   0.363E+01 -.484E+01 -.202E+04   -.118E+00 -.478E-01 -.158E+01   -.862E-03 0.234E-02 0.590E-02
   -.810E+01 0.558E+01 -.202E+04   0.815E+01 -.581E+01 0.202E+04   -.410E-01 0.228E+00 0.166E+01   -.225E-03 0.305E-02 -.823E-02
   -.738E+01 0.193E+01 -.194E+02   0.699E+01 -.124E+01 0.195E+02   0.394E+00 -.677E+00 -.191E-01   -.288E-03 0.372E-02 0.322E-02
   0.907E+01 0.353E+01 -.335E+02   -.910E+01 -.401E+01 0.335E+02   0.206E-01 0.486E+00 -.283E-02   -.915E-03 0.207E-03 0.872E-04
   0.130E+02 -.579E+01 0.202E+04   -.131E+02 0.607E+01 -.202E+04   0.503E-01 -.169E+00 -.187E+01   0.398E-02 -.156E-02 0.583E-02
   -.736E+01 0.115E+02 -.200E+04   0.754E+01 -.120E+02 0.200E+04   -.180E+00 0.471E+00 0.182E+01   0.314E-02 -.876E-03 -.974E-02
   -.884E+01 -.141E+00 -.201E+04   0.909E+01 0.101E+00 0.201E+04   -.246E+00 0.402E-01 0.157E+01   -.279E-02 -.216E-02 -.478E-02
   -.355E-01 0.450E-01 -.729E+00   0.590E-12 0.135E-12 -.250E-11   0.648E-01 -.331E-01 0.601E+00   -.115E-01 0.179E-02 0.128E+00

 POSITION                                       TOTAL-FORCE (eV/Angst)
      1.37532      0.79404     10.00000         0.325453      0.191724     -0.098564
     10.99093      6.37228     12.54322        -0.003734     -0.002488     -0.008551
     12.36332      3.93623     12.49355         0.001175      0.001654      0.002850
     12.37790      5.55830     10.00000         0.391735     -0.015097     -0.286887
      9.66941      2.37606     14.93382         0.004894      0.003317      0.004571
     13.75422      6.39109     12.44638         0.007575     -0.003454     -0.001874
      2.76535      4.76085     15.03510         0.000722      0.000365      0.004066
      5.50129      7.94043     10.00000        -0.221113     -0.307442     -0.201169
     11.00258      3.17617     10.00000        -0.074164     -0.017337     -0.102337
      8.28080     -0.02826     14.91834        -0.000207     -0.000022     -0.001110
      9.62726      0.79404     10.00000        -0.252323      0.011611     -0.037955
      6.86437      2.39231     14.98503         0.004648     -0.006300     -0.003079
      6.89760      3.94713     12.39681         0.009749      0.015093     -0.001891
      4.10991      3.95448     12.40403        -0.008099      0.005756     -0.006903
     11.00258      7.94043     10.00000         0.098407      0.209835     -0.058297
      5.50103      6.37672     12.43624        -0.010085     -0.000765     -0.005557
      8.24856      4.77783     15.03240         0.009927      0.004382      0.004838
      8.25194      7.94043     10.00000         0.003979      0.070856     -0.152229
      8.24188      6.36527     12.49550        -0.005406     -0.013817      0.003804
      9.62726      5.55830     10.00000        -0.293644     -0.254347     -0.117957
      6.87661      0.79404     10.00000        -0.008580      0.098197     -0.111915
      5.48464      1.56347     12.42341        -0.004745     -0.018074     -0.000931
      5.48978     -0.00663     14.93921         0.001549      0.003378     -0.000828
      9.61770      7.16298     15.03698         0.003918     -0.012490      0.014310
      4.15147      7.14284     14.83432        -0.001615     -0.006561     -0.001299
      4.12597      0.79404     10.00000        -0.047222      0.172711      0.197825
      2.72842      1.56124     12.41271        -0.005747     -0.006581     -0.004337
      2.72923      0.02149     14.79686         0.001455     -0.001980     -0.011765
      6.87575      8.76703     12.45807        -0.000381      0.010240      0.011669
      4.11337      2.38103     14.81252        -0.000144     -0.004635     -0.004273
      6.87661      5.55830     10.00000        -0.100379     -0.212270      0.130486
      5.50209      4.76927     14.82389         0.002063      0.004227     -0.005130
     15.12378      8.76607     12.45037         0.003391      0.013122      0.008556
      5.50129      3.17617     10.00000        -0.078862      0.111232      0.038428
      4.12597      5.55830     10.00000         0.034582     -0.087246      0.117358
     12.38558      8.74996     12.46219        -0.003624      0.013634     -0.003489
      2.75065      3.17617     10.00000         0.214805     -0.025355      0.172839
      0.02546     -0.01369     14.80286         0.007339     -0.000422     -0.002728
     10.98558      1.57685     12.46982         0.004128     -0.013207      0.008450
      6.85428      7.16847     14.85061         0.006799     -0.007569      0.001090
      8.27122      1.58061     12.45491         0.005523      0.000448      0.002661
     13.75323      7.94043     10.00000         0.067575     -0.047317      0.224273
     11.01746      4.75629     14.88601         0.008062      0.000688      0.006006
      9.60897      8.74991     12.46208         0.000111      0.014502      0.004463
      9.61951      3.95147     12.48439        -0.010780      0.001756     -0.002626
      8.25194      3.17617     10.00000        -0.091585      0.106063      0.271121
      1.39898      2.36069     14.83334         0.000555      0.002187     -0.001883
     12.40103      7.13567     14.87800         0.002323     -0.002201      0.005902
    total drift:                                0.017729      0.013637      0.000092

  FREE ENERGIE OF THE ION-ELECTRON SYSTEM (eV)
  free  energy   TOTEN  =      -192.08612858 eV

  energy  without entropy=     -191.84608016  energy(sigma->0) =     -191.96610437

 d Force = 0.5814670E-05[-0.103E-05, 0.127E-04]  d Energy = 0.4152032E-05 0.166E-05
 d Force =-0.5564214E+01[-0.556E+01,-0.556E+01]  d Ewald  =-0.5564214E+01-0.605E-08

 stress matrix after NEB project (eV)
      0.00000      0.00000      0.00000
      0.00000      0.00000      0.00000
      0.00000      0.00000      0.00000
  FORCES: max atom, RMS     0.019394    0.009252
  FORCE total and by dimension    0.064099    0.018074
  Stress total and by dimension    0.000000    0.000000

 reached required accuracy - stopping structural energy minimisation