 vasp.5.4.1 24Jun15 (build Mar 14 2019 10:18:33) complex

 executed on INTEL-19.0.2+OPENMPI date 2023.01.31  01:05:14

 INCAR:
 POTCAR:    PAW_PBE Au 04Oct2007
 POTCAR:    PAW_PBE Pd 04Jan2005
 POTCAR:    PAW_PBE Au 04Oct2007

 POTCAR:    PAW_PBE Pd 04Jan2005

 Optimization of the real space projectors (new method)

 maximal supplied QI-value         = 15.12
 optimisation between [QCUT,QGAM] = [ 10.13, 20.41] = [ 28.73,116.64] Ry
 Optimized for a Real-space Cutoff    1.51 Angstroem

   l    n(q)    QCUT    max X(q) W(low)/X(q) W(high)/X(q)  e(spline)
   2      8    10.129    60.898    0.46E-03    0.46E-03    0.14E-06
   2      8    10.129    58.894    0.47E-03    0.47E-03    0.14E-06
   0      9    10.129   109.617    0.16E-03    0.11E-03    0.54E-07
   0      9    10.129    75.026    0.15E-03    0.11E-03    0.52E-07
   1      9    10.129    16.344    0.96E-04    0.15E-03    0.14E-06
   1      9    10.129    10.160    0.81E-04    0.12E-03    0.11E-06
 Optimization of the real space projectors (new method)

 maximal supplied QI-value         = 14.36
 optimisation between [QCUT,QGAM] = [ 10.20, 20.39] = [ 29.12,116.47] Ry
 Optimized for a Real-space Cutoff    1.51 Angstroem

   l    n(q)    QCUT    max X(q) W(low)/X(q) W(high)/X(q)  e(spline)
   2      8    10.197    59.108    0.26E-03    0.14E-03    0.96E-07
   2      8    10.197    58.101    0.27E-03    0.14E-03    0.98E-07
   0      9    10.197   102.235    0.54E-04    0.60E-05    0.72E-07
   0      9    10.197    58.388    0.52E-04    0.60E-05    0.68E-07
   1      9    10.197    22.191    0.18E-03    0.25E-03    0.79E-07
   1      9    10.197    15.590    0.15E-03    0.21E-03    0.69E-07
  PAW_PBE Au 04Oct2007                  :
  PAW_PBE Pd 04Jan2005                  :

 POSCAR: Au Pd
  positions in cartesian coordinates
 exchange correlation table for  LEXCH =        8
   RHO(1)=    0.500       N(1)  =     2000
   RHO(2)=  100.500       N(2)  =     4000

 VTST: version 3.2, (02/03/18)

 CHAIN: initializing optimizer

 OPT: Using VASP Conjugate-Gradient optimizer
 CHAIN: Read ICHAIN            0

 POSCAR: Au Pd
  positions in cartesian coordinates

 ion  position               nearest neighbor table
   1  0.083  0.083  0.408-  32 2.75  31 2.75   2 2.75  38 2.75  42 2.75  34 2.75  45 2.75  30 2.75
                            36 2.75
   2  0.083  0.833  0.408-  30 2.75  29 2.75   1 2.75  35 2.75  45 2.75  39 2.75  31 2.75  10 2.75
                             7 2.75
   3  0.167  0.417  0.500-  38 2.75   9 2.75  27 2.75  26 2.75  10 2.75  32 2.75  14 2.75  13 2.75
                            16 2.75  35 2.75  11 2.75  41 2.75
   4  0.000  0.750  0.592-   7 2.75  10 2.75   5 2.75  11 2.75  19 2.75  27 2.75   8 2.75  48 2.75
                            26 2.75
   5  0.000  0.000  0.592-  36 2.75  30 2.75   4 2.75  21 2.75  43 2.75  48 2.75  19 2.75   6 2.75
                             7 2.75
   6  0.250  0.000  0.592-  32 2.75  46 2.75  37 2.75  43 2.75   9 2.75  48 2.75  15 2.75   5 2.75
                            30 2.75
   7  0.917  0.917  0.500-  39 2.75   4 2.75  19 2.75  26 2.75  36 2.75  10 2.75  44 2.75  30 2.75
                            12 2.75  45 2.75   5 2.75   2 2.75
   8  0.750  0.750  0.592-  12 2.75  26 2.75  19 2.75  23 2.75  15 2.75  27 2.75   4 2.75  37 2.75
                            22 2.75
   9  0.250  0.250  0.592-   3 2.75  14 2.75  11 2.75   6 2.75  15 2.75  27 2.75  17 2.75  43 2.75
                            32 2.75
  10  0.167  0.667  0.500-  35 2.75  11 2.75   4 2.75   3 2.75  16 2.75  30 2.75   7 2.75  33 2.75
                            26 2.75   2 2.75  29 2.75  48 2.75
  11  0.250  0.500  0.592-  10 2.75  16 2.75   4 2.75   9 2.75  17 2.75  48 2.75  47 2.75  27 2.75
                             3 2.75
  12  0.667  0.917  0.500-  18 2.75   8 2.75  15 2.75  14 2.75  22 2.75  26 2.75  44 2.75   7 2.75
                            46 2.75  24 2.75  19 2.75  39 2.75
  13  0.917  0.417  0.500-  42 2.75  43 2.75  23 2.75  32 2.75  36 2.75  22 2.75  26 2.75  20 2.75
                             3 2.75  40 2.75  38 2.75  27 2.75
  14  0.417  0.167  0.500-  34 2.75  15 2.75   9 2.75   3 2.75  16 2.75  12 2.75  46 2.75  44 2.75
                            32 2.75  41 2.75  24 2.75  17 2.75
  15  0.500  0.000  0.592-  14 2.75  12 2.75   8 2.75   9 2.75  17 2.75  37 2.75  19 2.75   6 2.75
                            46 2.75
  16  0.417  0.417  0.500-  41 2.75  17 2.75  11 2.75  10 2.75  33 2.75  14 2.75  44 2.75  20 2.75
                             3 2.75  29 2.75  28 2.75  47 2.75
  17  0.500  0.250  0.592-  16 2.75  44 2.75  11 2.75  19 2.75  15 2.75  47 2.75   9 2.75  21 2.75
                            14 2.75
  18  0.583  0.833  0.408-  12 2.75  24 2.75  25 2.75  34 2.75  40 2.75  39 2.75  31 2.75  22 2.75
                            46 2.75
  19  0.750  0.000  0.592-  44 2.75   7 2.75   8 2.75  17 2.75  21 2.75   4 2.75  15 2.75   5 2.75
                            12 2.75
  20  0.667  0.417  0.500-  28 2.75  21 2.75  47 2.75  33 2.75  36 2.75  44 2.75  22 2.75  16 2.75
                            13 2.75  25 2.75  23 2.75  42 2.75
  21  0.750  0.250  0.592-  20 2.75  36 2.75   5 2.75  23 2.75  19 2.75  47 2.75  43 2.75  17 2.75
                            44 2.75
  22  0.667  0.667  0.500-  25 2.75  23 2.75  37 2.75  12 2.75  13 2.75  20 2.75  46 2.75  26 2.75
                            33 2.75  18 2.75  40 2.75   8 2.75
  23  0.750  0.500  0.592-  22 2.75  13 2.75  21 2.75   8 2.75  37 2.75  43 2.75  27 2.75  47 2.75
                            20 2.75
  24  0.583  0.083  0.408-  44 2.75  28 2.75  39 2.75  41 2.75  18 2.75  34 2.75  45 2.75  12 2.75
                            14 2.75
  25  0.583  0.583  0.408-  22 2.75  18 2.75  28 2.75  31 2.75  42 2.75  40 2.75  29 2.75  20 2.75
                            33 2.75
  26  0.917  0.667  0.500-  40 2.75  27 2.75   8 2.75  12 2.75  13 2.75   7 2.75   3 2.75  10 2.75
                            22 2.75  39 2.75   4 2.75  35 2.75
  27  0.000  0.500  0.592-  26 2.75   3 2.75   8 2.75   9 2.75   4 2.75  43 2.75  11 2.75  23 2.75
                            13 2.75
  28  0.583  0.333  0.408-  20 2.75  24 2.75  25 2.75  29 2.75  45 2.75  42 2.75  41 2.75  44 2.75
                            16 2.75
  29  0.333  0.583  0.408-  33 2.75  28 2.75  31 2.75   2 2.75  41 2.75  35 2.75  25 2.75  16 2.75
                            10 2.75
  30  0.167  0.917  0.500-   2 2.75  48 2.75   5 2.75  32 2.75  33 2.75  36 2.75  10 2.75  46 2.75
                             7 2.75   1 2.75  31 2.75   6 2.75
  31  0.333  0.833  0.408-  46 2.75  25 2.75  29 2.75  34 2.75   1 2.75   2 2.75  18 2.75  33 2.75
                            30 2.75
  32  0.167  0.167  0.500-   1 2.75   6 2.75  43 2.75  13 2.75  30 2.75   3 2.75  46 2.75  14 2.75
                            36 2.75  38 2.75   9 2.75  34 2.75
  33  0.417  0.667  0.500-  29 2.75  47 2.75  48 2.75  30 2.75  46 2.75  20 2.75  16 2.75  22 2.75
                            10 2.75  31 2.75  37 2.75  25 2.75
  34  0.333  0.083  0.408-  14 2.75  18 2.75  31 2.75  38 2.75  41 2.75  24 2.75   1 2.75  46 2.75
                            32 2.75
  35  0.083  0.583  0.408-  10 2.75   2 2.75  38 2.75  39 2.75  41 2.75  40 2.75  29 2.75   3 2.75
                            26 2.75
  36  0.917  0.167  0.500-  45 2.75   5 2.75  21 2.75  20 2.75   7 2.75  30 2.75  13 2.75  44 2.75
                            32 2.75  42 2.75   1 2.75  43 2.75
  37  0.500  0.750  0.592-  46 2.75  22 2.75   6 2.75  23 2.75  15 2.75  47 2.75   8 2.75  48 2.75
                            33 2.75
  38  0.083  0.333  0.408-   3 2.75   1 2.75  34 2.75  35 2.75  40 2.75  41 2.75  42 2.75  32 2.75
                            13 2.75
  39  0.833  0.833  0.408-   7 2.75  24 2.75  35 2.75  40 2.75  45 2.75   2 2.75  18 2.75  26 2.75
                            12 2.75
  40  0.833  0.583  0.408-  26 2.75  18 2.75  38 2.75  39 2.75  42 2.75  35 2.75  25 2.75  13 2.75
                            22 2.75
  41  0.333  0.333  0.408-  16 2.75  24 2.75  29 2.75  34 2.75  35 2.75  28 2.75  38 2.75  14 2.75
                             3 2.75
  42  0.833  0.333  0.408-  13 2.75   1 2.75  25 2.75  40 2.75  45 2.75  28 2.75  38 2.75  36 2.75
                            20 2.75
  43  0.000  0.250  0.592-  13 2.75  32 2.75   5 2.75  23 2.75  27 2.75   6 2.75  21 2.75   9 2.75
                            36 2.75
  44  0.667  0.167  0.500-  24 2.75  19 2.75  17 2.75   7 2.75  12 2.75  20 2.75  16 2.75  14 2.75
                            36 2.75  28 2.75  21 2.75  45 2.75
  45  0.833  0.083  0.408-  36 2.75  28 2.75   2 2.75  39 2.75  42 2.75   1 2.75  24 2.75   7 2.75
                            44 2.75
  46  0.417  0.917  0.500-  31 2.75  37 2.75   6 2.75  14 2.75  32 2.75  33 2.75  22 2.75  12 2.75
                            30 2.75  34 2.75  18 2.75  15 2.75
  47  0.500  0.500  0.592-  33 2.75  20 2.75  21 2.75  17 2.75  37 2.75  48 2.75  23 2.75  11 2.75
                            16 2.75
  48  0.250  0.750  0.592-  30 2.75  33 2.75  11 2.75   5 2.75   6 2.75  47 2.75  37 2.75   4 2.75
                            10 2.75

  LATTYP: Found a hexagonal cell.
 ALAT       =    11.0025815153
 C/A-ratio  =     2.2260035120

  Lattice vectors:

 A1 = (   5.5012907576,  -9.5285150994,   0.0000000000)
 A2 = ( -11.0025815153,   0.0000000000,   0.0000000000)
 A3 = (   0.0000000000,   0.0000000000, -24.4917850943)

Analysis of symmetry for initial positions (statically):
 Subroutine PRICEL returns:
 Original cell was already a primitive cell.

 Routine SETGRP: Setting up the symmetry group for a
 hexagonal supercell.

 Subroutine GETGRP returns: Found  1 space group operations
 (whereof  1 operations were pure point group operations)
 out of a pool of 24 trial point group operations.

The static configuration has the point symmetry C_1 .

Analysis of symmetry for dynamics (positions and initial velocities):
 Subroutine PRICEL returns:
 Original cell was already a primitive cell.

[...]

The dynamic configuration has the point symmetry C_1 .

Analysis of constrained symmetry for selective dynamics:
 Subroutine PRICEL returns:
 Original cell was already a primitive cell.

 Routine SETGRP: Setting up the symmetry group for a
 hexagonal supercell.

 Subroutine GETGRP returns: Found  1 space group operations
 (whereof  1 operations were pure point group operations)
 out of a pool of 24 trial point group operations.

The constrained configuration has the point symmetry C_1 .

 KPOINTS: Automatic mesh

Automatic generation of k-mesh.
Space group operators:
 irot       det(A)        alpha          n_x          n_y          n_z        tau_x        tau_y        tau_z
    1     1.000000     0.000000     1.000000     0.000000     0.000000     0.000000     0.000000     0.000000

 Subroutine IBZKPT returns following result:

 Found      6 irreducible k-points:

 Following reciprocal coordinates:
            Coordinates               Weight
  0.250000  0.250000  0.000000     16.000000
  0.000000  0.250000  0.000000     16.000000
 -0.250000  0.000000  0.000000     16.000000
 -0.250000  0.250000  0.000000     16.000000
  0.500000 -0.250000  0.000000     16.000000
[...]
 dipolmoment           0.000000      0.000000      0.010173 electrons x Angstroem
 Tr[quadrupol]    -10240.595423

 energy correction for charged system         0.000000 eV
 dipol+quadrupol energy correction           -0.000004 eV
 added-field ion interaction         -0.084618 eV  (added to PSCEN)

  free energy =  -0.191706268492E+03  energy without entropy=  -0.191502177146E+03

 average (electrostatic) potential at core
  the test charge radii are     1.2098  1.1199
  (the norm of the test charge is              1.0000)
       1 -73.9038       2 -73.9600       3 -74.1856       4 -74.0017       5 -74.0077
       6 -73.9930       7 -74.1437       8 -74.0091       9 -73.9778      10 -74.1533
      11 -73.9615      12 -74.1823      13 -74.1346      14 -74.1903      15 -74.0597
      16 -74.1766      17 -74.0689      18 -73.9413      19 -74.1431      20 -74.1346
      21 -74.0190      22 -74.1375      23 -73.9099      24 -73.9845      25 -80.7773
      26 -80.8355      27 -80.7977      28 -80.7822      29 -80.7876      30 -80.8948
      31 -80.7512      32 -80.8810      33 -80.9069      34 -80.7955      35 -80.7750
      36 -80.8924      37 -80.8033      38 -80.7820      39 -80.7934      40 -80.7709
      41 -80.8272      42 -80.7884      43 -80.7874      44 -80.8375      45 -80.7945
      46 -80.8812      47 -80.7776      48 -80.8048

 E-fermi :  -1.0754     XC(G=0):  -4.5496     alpha+bet : -4.5213

[...]

 k-point     6 :      -0.2500    0.5000    0.0000
  band No.  band energies     occupation
      1      -8.6734      2.00000
      2      -8.2178      2.00000
      3      -8.0095      2.00000
      4      -7.6030      2.00000
      5      -7.2344      2.00000
      6      -7.1630      2.00000
      7      -7.1382      2.00000
      8      -6.9776      2.00000
      9      -6.9250      2.00000
     10      -6.8840      2.00000
     11      -6.8497      2.00000
     12      -6.8167      2.00000
     13      -6.7687      2.00000
     14      -6.7264      2.00000
     15      -6.6685      2.00000
     16      -6.6175      2.00000
     17      -6.5925      2.00000
     18      -6.5461      2.00000
     19      -6.5253      2.00000
     20      -6.4908      2.00000
     21      -6.4657      2.00000
     22      -6.3850      2.00000
     23      -6.3699      2.00000
     24      -6.3142      2.00000
     25      -6.3022      2.00000
     26      -6.2732      2.00000
     27      -6.2517      2.00000
     28      -6.2309      2.00000
     29      -6.2064      2.00000
     30      -6.1593      2.00000
     31      -6.1503      2.00000
     32      -6.1400      2.00000
     33      -6.0950      2.00000
     34      -6.0654      2.00000
     35      -6.0542      2.00000
     36      -6.0311      2.00000
     37      -6.0136      2.00000
     38      -5.9939      2.00000
     39      -5.9736      2.00000
     40      -5.9351      2.00000
     41      -5.9124      2.00000
     42      -5.8812      2.00000
     43      -5.8611      2.00000
     44      -5.7968      2.00000
     45      -5.7795      2.00000
     46      -5.7327      2.00000
     47      -5.7157      2.00000
     48      -5.6690      2.00000
     49      -5.6359      2.00000
     50      -5.6278      2.00000
     51      -5.5977      2.00000
     52      -5.5516      2.00000
     53      -5.5286      2.00000
     54      -5.4931      2.00000
     55      -5.4682      2.00000
     56      -5.4265      2.00000
     57      -5.4205      2.00000
     58      -5.4025      2.00000
     59      -5.3682      2.00000
     60      -5.3483      2.00000
[...]
    292       4.1814      0.00000
    293       4.4897      0.00000
    294       4.5294      0.00000
    295       4.5964      0.00000
    296       4.6168      0.00000
    297       4.6391      0.00000
    298       4.7796      0.00000
    299       4.8567      0.00000
    300       4.9135      0.00000
    301       4.9825      0.00000
    302       5.0711      0.00000
    303       5.0767      0.00000
    304       5.1103      0.00000
    305       5.1619      0.00000
    306       5.2445      0.00000

 soft charge-density along one line, spin component           1
         0         1         2         3         4         5         6         7         8         9
 total charge-density along one line

------------------------ aborting loop because EDIFF is reached ----------------------------------------

 VOLUME and BASIS-vectors are now :
  energy-cutoff  :      400.00
  volume of cell :     2567.68
      direct lattice vectors                 reciprocal lattice vectors
    11.002581515  0.000000000  0.000000000     0.090887761 -0.052474073  0.000000000
     5.501290758  9.528515099  0.000000000     0.000000000  0.104948147  0.000000000
     0.000000000  0.000000000 24.491785094     0.000000000  0.000000000  0.040830017

  length of vectors
    11.002581515 11.002581515 24.491785094     0.104948147  0.104948147  0.040830017

 FORCES acting on ions
    electron-ion (+dipol)            ewald-force                    non-local-force                 convergence-correction
   -.489E+01 -.122E+02 0.224E+04   0.524E+01 0.125E+02 -.224E+04   -.211E+00 -.239E+00 -.616E+00   -.292E-01 0.919E-02 0.139E-01
   0.369E+01 0.106E+02 0.225E+04   -.365E+01 -.110E+02 -.225E+04   -.342E-01 0.274E+00 0.740E-01   -.810E-02 0.151E-01 0.138E-01
   -.724E+01 0.978E+00 0.555E+02   0.653E+01 -.775E+00 -.566E+02   0.700E+00 -.208E+00 0.109E+01   0.578E-02 0.452E-02 0.153E-01
   -.110E+02 0.628E+01 -.223E+04   0.109E+02 -.689E+01 0.223E+04   0.122E+00 0.605E+00 -.158E+00   0.601E-03 0.827E-02 -.132E-01
   -.165E+02 -.106E+01 -.220E+04   0.171E+02 0.119E+01 0.220E+04   -.689E+00 -.144E+00 0.305E+00   -.490E-02 0.685E-02 -.581E-02
   0.758E+01 0.828E+01 -.218E+04   -.781E+01 -.866E+01 0.218E+04   0.242E+00 0.374E+00 0.466E+00   -.100E-02 0.782E-02 0.113E-01
   0.373E+01 0.982E+00 0.291E+02   -.401E+01 -.309E+00 -.301E+02   0.269E+00 -.687E+00 0.998E+00   0.170E-01 0.736E-02 0.839E-02
   0.879E+01 0.141E+02 -.226E+04   -.871E+01 -.147E+02 0.226E+04   -.837E-01 0.648E+00 -.156E+00   0.476E-02 0.901E-02 -.115E-01
   0.167E+02 -.327E+01 -.224E+04   -.177E+02 0.383E+01 0.224E+04   0.103E+01 -.560E+00 -.179E+00   -.321E-03 0.124E-02 0.310E-02
   0.100E+02 0.560E+01 0.244E+02   -.952E+01 -.532E+01 -.248E+02   -.467E+00 -.290E+00 0.376E+00   -.110E-01 0.169E-01 0.156E-01
   -.793E+01 -.739E+01 -.228E+04   0.821E+01 0.774E+01 0.228E+04   -.282E+00 -.347E+00 -.307E+00   0.311E-02 -.599E-02 0.336E-02
   -.315E+01 -.972E+00 -.210E+02   0.351E+01 0.798E+00 0.206E+02   -.377E+00 0.165E+00 0.400E+00   0.436E-02 0.833E-02 0.906E-02
   0.313E+01 -.474E+01 0.619E+02   -.269E+01 0.427E+01 -.623E+02   -.436E+00 0.470E+00 0.414E+00   -.811E-02 -.282E-02 0.829E-02
   -.244E+01 -.317E+01 0.194E+02   0.184E+01 0.280E+01 -.204E+02   0.587E+00 0.370E+00 0.957E+00   0.974E-02 -.315E-02 0.139E-01
   0.155E+02 0.456E+01 -.224E+04   -.159E+02 -.519E+01 0.224E+04   0.424E+00 0.623E+00 -.680E-01   0.409E-02 -.206E-02 -.834E-02
   0.890E+01 0.650E+01 0.567E+02   -.817E+01 -.642E+01 -.576E+02   -.744E+00 -.708E-01 0.950E+00   0.889E-02 -.163E-01 0.104E-01
   -.329E+01 -.120E+02 -.222E+04   0.383E+01 0.123E+02 0.222E+04   -.548E+00 -.292E+00 -.504E-01   0.118E-01 0.376E-02 -.707E-02
   0.377E+01 0.938E+01 0.224E+04   -.431E+01 -.970E+01 -.224E+04   0.369E+00 0.188E+00 0.152E+00   0.103E-01 -.435E-02 0.685E-02
   -.694E+01 -.386E+01 -.226E+04   0.687E+01 0.420E+01 0.226E+04   0.722E-01 -.351E+00 -.130E+00   0.250E-02 0.668E-02 -.165E-01
   -.524E+01 0.463E+01 0.722E+02   0.476E+01 -.505E+01 -.733E+02   0.482E+00 0.434E+00 0.114E+01   -.236E-02 -.238E-01 0.460E-02
   -.907E+01 -.111E+02 -.220E+04   0.929E+01 0.114E+02 0.220E+04   -.221E+00 -.278E+00 0.560E-01   -.186E-04 -.187E-02 -.858E-02
   -.953E+01 0.444E+01 0.272E+02   0.905E+01 -.400E+01 -.276E+02   0.464E+00 -.424E+00 0.427E+00   0.157E-01 -.703E-02 0.112E-01
   0.691E+01 0.309E+01 -.227E+04   -.692E+01 -.313E+01 0.227E+04   0.997E-02 0.496E-01 -.294E+00   -.346E-02 -.939E-02 0.512E-02
   -.903E+01 -.120E+02 0.224E+04   0.969E+01 0.127E+02 -.224E+04   -.450E+00 -.463E+00 0.167E+00   0.226E-01 0.718E-02 0.108E-01
   0.469E+01 0.861E+01 0.206E+04   -.509E+01 -.867E+01 -.205E+04   0.276E+00 0.947E-02 -.163E+01   0.146E-02 -.200E-01 0.364E-02
   0.158E+00 -.255E+01 0.416E+02   -.154E+00 0.240E+01 -.425E+02   -.857E-02 0.145E+00 0.840E+00   0.247E-02 -.184E-03 0.169E-01
   0.542E+01 0.820E+01 -.193E+04   -.547E+01 -.826E+01 0.193E+04   0.594E-01 0.631E-01 0.125E+01   -.375E-02 0.113E-02 -.130E-01
   -.435E+01 -.299E+01 0.205E+04   0.450E+01 0.296E+01 -.205E+04   -.842E-01 0.250E-01 -.156E+01   0.141E-01 -.867E-02 0.955E-02
   -.415E+01 0.930E+01 0.206E+04   0.452E+01 -.933E+01 -.205E+04   -.248E+00 -.434E-01 -.166E+01   0.647E-02 -.953E-02 0.437E-02
   0.112E+00 -.397E+01 0.317E+02   0.680E+00 0.389E+01 -.316E+02   -.768E+00 0.781E-01 -.551E-01   -.339E-01 0.466E-02 0.731E-02
   -.466E+01 0.750E+01 0.204E+04   0.484E+01 -.779E+01 -.204E+04   -.743E-01 0.181E+00 -.200E+01   -.682E-02 -.566E-02 0.436E-02
   -.486E+01 0.282E+00 0.483E+02   0.465E+01 -.648E+00 -.488E+02   0.224E+00 0.362E+00 0.480E+00   -.148E-01 0.586E-02 0.153E-01
   -.336E+00 -.272E+00 0.852E+02   0.330E+00 0.865E+00 -.852E+02   0.527E-02 -.593E+00 -.558E-01   -.317E-02 -.347E-02 0.880E-02
   0.692E+01 -.993E+01 0.204E+04   -.736E+01 0.995E+01 -.204E+04   0.293E+00 0.664E-01 -.190E+01   0.454E-02 0.315E-02 0.659E-02
   0.855E+01 0.759E+01 0.205E+04   -.884E+01 -.766E+01 -.205E+04   0.169E+00 0.303E-01 -.155E+01   0.232E-02 0.498E-02 0.922E-02
   0.565E+01 -.202E+00 0.438E+02   -.557E+01 0.125E+00 -.442E+02   -.832E-01 0.794E-01 0.387E+00   -.483E-02 -.399E-02 0.325E-02
   0.195E+02 0.853E+01 -.193E+04   -.200E+02 -.861E+01 0.193E+04   0.488E+00 0.749E-01 0.171E+01   0.650E-02 0.226E-02 0.141E-01
   -.480E+01 -.776E+01 0.205E+04   0.492E+01 0.779E+01 -.205E+04   -.338E-01 0.236E-01 -.151E+01   -.146E-01 -.433E-03 0.834E-02
   -.237E+01 0.134E+02 0.204E+04   0.250E+01 -.139E+02 -.204E+04   -.856E-01 0.381E+00 -.157E+01   0.480E-02 0.138E-01 0.897E-02
   -.913E+01 0.727E+01 0.205E+04   0.946E+01 -.735E+01 -.205E+04   -.187E+00 -.213E-02 -.163E+01   -.103E-01 -.518E-02 0.928E-02
   0.490E+01 -.861E+01 0.206E+04   -.502E+01 0.891E+01 -.205E+04   0.287E-01 -.188E+00 -.161E+01   0.164E-01 0.104E-03 0.763E-02
   0.435E+01 -.504E+01 0.205E+04   -.451E+01 0.509E+01 -.205E+04   0.869E-01 0.368E-01 -.181E+01   -.159E-01 -.102E-01 0.111E-01
   -.321E+01 -.139E+01 -.193E+04   0.337E+01 0.147E+01 0.192E+04   -.157E+00 -.747E-01 0.161E+01   -.813E-02 -.178E-02 0.327E-02
   -.662E-01 0.950E+00 0.201E+02   0.582E+00 -.913E+00 -.211E+02   -.536E+00 -.329E-01 0.919E+00   0.148E-01 0.469E-02 0.561E-02
   0.680E+01 -.158E+02 0.204E+04   -.693E+01 0.162E+02 -.204E+04   0.184E-01 -.275E+00 -.184E+01   0.136E-02 0.131E-01 0.139E-01
   0.967E+00 -.556E+01 0.418E+02   -.177E+01 0.543E+01 -.421E+02   0.783E+00 0.126E+00 0.356E+00   0.183E-01 0.521E-02 0.140E-01
   -.458E+01 -.174E+02 -.192E+04   0.447E+01 0.180E+02 0.192E+04   0.108E+00 -.612E+00 0.134E+01   0.291E-02 -.115E-01 0.866E-02
   -.180E+02 0.222E+01 -.193E+04   0.186E+02 -.250E+01 0.193E+04   -.525E+00 0.271E+00 0.170E+01   -.595E-02 0.406E-02 0.385E-02
   -.265E-01 0.364E-02 0.349E+01   0.551E-12 -.178E-13 0.568E-11   -.227E-01 -.228E-01 -.380E+01   0.269E-01 0.180E-01 0.279E+00

 POSITION                                       TOTAL-FORCE (eV/Angst)
      1.37532      0.79404     10.00000         0.105972      0.155413     -0.162199
      5.50129      7.94043     10.00000        -0.010128     -0.155983     -0.357919
      4.10552      3.97578     12.39410        -0.003687      0.000066      0.000294
      4.13114      7.12773     14.98985        -0.006442      0.000591      0.006219
      0.02104     -0.00294     14.91475        -0.004439     -0.004670      0.000440
      2.74447     -0.01439     14.87668         0.006454     -0.004419     -0.001104
     15.12641      8.76026     12.42253         0.012384     -0.006773     -0.003410
     12.37293      7.11771     15.02062         0.001050     -0.000028      0.007030
      4.09407      2.39601     14.99103        -0.000850      0.001260      0.003298
      5.50937      6.36379     12.43271        -0.003111      0.011270     -0.004063
      5.51424      4.77355     15.03611        -0.001875     -0.005848      0.003287
     12.38100      8.73029     12.48111        -0.013995     -0.000768     -0.000765
     12.37640      3.95699     12.39680        -0.004353      0.001087     -0.003239
      5.46897      1.57860     12.42971         0.001548     -0.003941     -0.003083
      5.47704     -0.02355     14.99056        -0.004278     -0.004711      0.010444
      6.88461      3.97488     12.39380        -0.001126     -0.007743     -0.003028
      6.88152      2.39750     14.98044         0.000852      0.004686      0.002720
     11.00258      7.94043     10.00000        -0.164971     -0.136269     -0.336800
      8.25328      0.00219     15.03732         0.001350     -0.007284      0.010581
      9.61941      3.95614     12.37884        -0.000659     -0.003347     -0.000813
      9.63754      2.39355     14.92531        -0.007613      0.001603     -0.001398
     10.98983      6.35335     12.42949         0.002376      0.004621     -0.003145
     11.00154      4.75831     15.00589         0.000595     -0.005570      0.002740
      6.87661      0.79404     10.00000         0.226667      0.210830     -0.280408
      9.62726      5.55830     10.00000        -0.125842     -0.067693      0.026550
     13.75198      6.36384     12.41353        -0.001730     -0.000852      0.000549
      2.74958      4.76103     14.81449         0.001736     -0.001807      0.009204
      8.25194      3.17617     10.00000         0.081715     -0.012028      0.055989
      6.87661      5.55830     10.00000         0.127956     -0.089007      0.016200
      6.90224      8.74613     12.42846        -0.009091     -0.000690      0.005794
      8.25194      7.94043     10.00000         0.096713     -0.114301      0.128626
      2.73629      1.56966     12.40360         0.002737      0.001586      0.002309
      8.25104      6.38133     12.36718        -0.003259     -0.003743     -0.002279
      4.12597      0.79404     10.00000        -0.136197      0.088261      0.159089
      4.12597      5.55830     10.00000        -0.111558     -0.037984      0.134683
     11.00469      1.57453     12.41240        -0.005268     -0.001852     -0.001226
      9.60892      7.12848     14.77876        -0.001951      0.001280     -0.007488
      2.75065      3.17617     10.00000         0.071073      0.047761      0.057106
     13.75323      7.94043     10.00000         0.041589     -0.178091      0.167364
     12.37790      5.55830     10.00000         0.131860     -0.092015      0.125415
      5.50129      3.17617     10.00000        -0.083083      0.112972      0.054096
     11.00258      3.17617     10.00000        -0.092240      0.074117      0.024807
      1.37469      2.38910     14.78745        -0.001516      0.002154     -0.005214
      8.25595      1.58890     12.43518        -0.005245      0.009012      0.001788
      9.62726      0.79404     10.00000        -0.111966      0.224359      0.161016
      9.60292      8.73840     12.41634         0.004193      0.002668      0.003948
      8.25361      4.78401     14.77648        -0.000898     -0.007128     -0.001142
      6.89438      7.12838     14.78099        -0.001449     -0.001048     -0.002866
    total drift:                               -0.022344     -0.001214     -0.023945

  FREE ENERGIE OF THE ION-ELECTRON SYSTEM (eV)
  free  energy   TOTEN  =      -191.70626849 eV

  energy  without entropy=     -191.50217715  energy(sigma->0) =     -191.60422282

 d Force = 0.2825137E-03[-0.763E-05, 0.573E-03]  d Energy = 0.2744336E-03 0.808E-05
 d Force = 0.2392572E+02[ 0.239E+02, 0.239E+02]  d Ewald  = 0.2392572E+02 0.115E-06

 stress matrix after NEB project (eV)
      0.00000      0.00000      0.00000
      0.00000      0.00000      0.00000
      0.00000      0.00000      0.00000
  FORCES: max atom, RMS     0.014522    0.006613
  FORCE total and by dimension    0.045814    0.013995
  Stress total and by dimension    0.000000    0.000000
 Conjugate gradient step on ions:
 trial-energy change:   -0.000274  1 .order   -0.000283   -0.000573    0.000008
  (g-gl).g = 0.956E-04      g.g   = 0.212E-03  gl.gl    = 0.478E-03
 g(Force)  = 0.212E-03   g(Stress)= 0.000E+00 ortho     = 0.191E-04
 gamma     =   0.20001
 trial     =   2.65645
 opt step  =   2.61837  (harmonic =   2.62151) maximal distance =0.00224439
 next E    =  -191.706269   (d E  =  -0.00027)

 reached required accuracy - stopping structural energy minimisation