 vasp.5.4.1 24Jun15 (build Mar 14 2019 10:18:33) complex

 executed on INTEL-19.0.2+OPENMPI date 2023.01.24  11:01:50

 INCAR:
 POTCAR:    PAW_PBE Au 04Oct2007
 POTCAR:    PAW_PBE O 08Apr2002
 POTCAR:    PAW_PBE Pd 04Jan2005
 POTCAR:    PAW_PBE Au 04Oct2007

 POTCAR:    PAW_PBE O 08Apr2002

 POTCAR:    PAW_PBE Pd 04Jan2005

 Optimization of the real space projectors (new method)

 maximal supplied QI-value         = 15.12
 optimisation between [QCUT,QGAM] = [ 10.13, 20.41] = [ 28.73,116.64] Ry
 Optimized for a Real-space Cutoff    1.51 Angstroem

   l    n(q)    QCUT    max X(q) W(low)/X(q) W(high)/X(q)  e(spline)
   2      8    10.129    60.898    0.46E-03    0.46E-03    0.14E-06
   2      8    10.129    58.894    0.47E-03    0.47E-03    0.14E-06
   0      9    10.129   109.617    0.16E-03    0.11E-03    0.54E-07
   0      9    10.129    75.026    0.15E-03    0.11E-03    0.52E-07
   1      9    10.129    16.344    0.96E-04    0.15E-03    0.14E-06
   1      9    10.129    10.160    0.81E-04    0.12E-03    0.11E-06
 Optimization of the real space projectors (new method)

[...]

   l    n(q)    QCUT    max X(q) W(low)/X(q) W(high)/X(q)  e(spline)
   0      8    10.150    20.381    0.22E-03    0.32E-03    0.29E-06
   0      8    10.150    15.268    0.23E-03    0.35E-03    0.30E-06
   1      8    10.150     5.964    0.46E-03    0.53E-03    0.21E-06
   1      8    10.150     5.382    0.38E-03    0.45E-03    0.19E-06
 Optimization of the real space projectors (new method)

 maximal supplied QI-value         = 14.36
 optimisation between [QCUT,QGAM] = [ 10.20, 20.39] = [ 29.12,116.47] Ry
 Optimized for a Real-space Cutoff    1.51 Angstroem

   l    n(q)    QCUT    max X(q) W(low)/X(q) W(high)/X(q)  e(spline)
   2      8    10.197    59.108    0.26E-03    0.14E-03    0.96E-07
   2      8    10.197    58.101    0.27E-03    0.14E-03    0.98E-07
   0      9    10.197   102.235    0.54E-04    0.60E-05    0.72E-07
   0      9    10.197    58.388    0.52E-04    0.60E-05    0.68E-07
   1      9    10.197    22.191    0.18E-03    0.25E-03    0.79E-07
   1      9    10.197    15.590    0.15E-03    0.21E-03    0.69E-07
  PAW_PBE Au 04Oct2007                  :
  PAW_PBE O 08Apr2002                   :
  PAW_PBE Pd 04Jan2005                  :

 POSCAR: Au  O Pd
  positions in direct lattice
  velocities in cartesian coordinates
 exchange correlation table for  LEXCH =        8
   RHO(1)=    0.500       N(1)  =     2000
   RHO(2)=  100.500       N(2)  =     4000

 VTST: version 3.2, (02/03/18)

 CHAIN: initializing optimizer

 OPT: Using VASP Conjugate-Gradient optimizer
 CHAIN: Read ICHAIN            0

 POSCAR: Au  O Pd
  positions in direct lattice
  velocities in cartesian coordinates

 ion  position               nearest neighbor table
   1  0.083  0.083  0.382-   3 2.75   6 2.75  47 2.75  51 2.75  48 2.75  46 2.75  37 2.84  55 2.92
                             2 2.92
   2  0.167  0.921  0.476-  55 2.73  37 2.76  35 2.79  17 2.79  42 2.82  15 2.82  12 2.84  43 2.86
                            24 2.88   1 2.92  47 2.94   3 2.97
   3  0.083  0.833  0.382-   1 2.75  10 2.75  36 2.75  48 2.75  47 2.75   5 2.75  35 2.90  12 2.94
                             2 2.97
   4  0.673  0.918  0.521-  33 2.83  21 2.87  12 2.89  14 2.93   9 2.96  22 2.96  44 2.98  15 3.02
                            13 3.05  54 3.28  40 3.31
   5  0.833  0.833  0.382-  10 2.75  23 2.75  48 2.75  56 2.75   3 2.75  45 2.75  44 2.85  12 2.89

   6  0.083  0.333  0.382-   1 2.75  10 2.75  46 2.75  56 2.75  51 2.75  18 2.75   7 2.87  55 2.89
                            39 3.02
   7  0.917  0.419  0.473-  52 2.74  39 2.74  44 2.74   9 2.75  55 2.77  37 2.77   8 2.85  56 2.86
                             6 2.87  51 2.89  49 2.94  53 2.99
   8  0.003  0.243  0.561-  31 2.10  42 2.72  20 2.74  43 2.75  55 2.77  37 2.82  53 2.84   7 2.85
                            49 2.88  11 2.92
   9  0.672  0.674  0.474-  44 2.65  15 2.71   7 2.75  54 2.80  17 2.81  52 2.83  45 2.86  56 2.87
                            49 2.90   4 2.96  41 2.97
  10  0.083  0.583  0.382-   3 2.75   5 2.75   6 2.75  18 2.75  36 2.75  56 2.75  44 2.87  35 2.91
                            39 2.98
  11  0.745  0.230  0.564-  31 2.10  40 2.66  14 2.71  43 2.74  16 2.84  50 2.85   8 2.92  37 2.92
                            52 2.93  49 3.10
  12  0.910  0.920  0.475-  14 2.68  13 2.72  44 2.73  37 2.76  35 2.79   2 2.84   5 2.89   4 2.89
                            48 2.89  43 2.92   3 2.94
  13  0.973  0.767  0.562-  27 2.19  43 2.68  12 2.72  44 2.77  53 2.78  35 2.93  33 3.00  24 3.02
                             4 3.05  34 3.06  50 3.12
  14  0.666  0.163  0.474-  12 2.68  22 2.70  11 2.71  19 2.77  37 2.77  52 2.83  23 2.88  48 2.90
                            38 2.91   4 2.93  40 3.05
  15  0.424  0.920  0.472-  22 2.67   9 2.71  55 2.77  17 2.81  54 2.81  45 2.81   2 2.82  46 2.84
                            47 2.91  42 2.99   4 3.02
  16  0.511  0.506  0.572-  30 2.19  49 2.63  24 2.75  54 2.79  34 2.81  11 2.84  52 2.94  19 3.01
                            17 3.04  40 3.05
  17  0.421  0.667  0.472-  52 2.73  19 2.77   2 2.79  35 2.80  15 2.81   9 2.81  41 2.82  47 2.85
                            36 2.87  54 2.93  24 2.94  16 3.04
  18  0.333  0.333  0.382-  10 2.75  23 2.75  36 2.75  46 2.75  38 2.75   6 2.75  19 2.99  22 3.00
                            39 3.01
  19  0.418  0.417  0.478-  39 2.76  17 2.77  14 2.77  52 2.77  35 2.77  22 2.77  34 2.80  38 2.98
                            36 2.98  18 2.99  16 3.01  40 3.07
  20  0.246  0.254  0.567-  26 2.16  53 2.71  40 2.72   8 2.74  34 2.78  42 2.80  39 2.80  22 2.86
                            55 2.88  21 3.08
  21  0.496  0.982  0.609-  26 2.14  29 2.14  33 2.55  54 2.68  42 2.84   4 2.87  40 2.94  20 3.08
                            50 3.44
  22  0.421  0.164  0.478-  15 2.67  14 2.70  55 2.75  19 2.77  39 2.83  20 2.86  40 2.90   4 2.96
                            23 2.97  46 2.99  18 3.00
  23  0.583  0.083  0.382-   5 2.75  18 2.75  38 2.75  45 2.75  46 2.75  48 2.75  14 2.88  22 2.97

  24  0.256  0.749  0.567-  42 2.70  43 2.73  34 2.73  16 2.75  54 2.82   2 2.88  35 2.91  17 2.94
                            13 3.02
  25  0.788  0.849  0.661-  33 1.93  50 1.95
  26  0.276  0.100  0.624-  42 1.98  21 2.14  20 2.16
  27  0.092  0.587  0.613-  34 1.97  53 2.01  13 2.19
  28  0.851  0.555  0.621-  33 1.95  53 1.98  49 2.03
  29  0.578  0.110  0.637-  50 1.96  40 2.02  21 2.14
  30  0.417  0.410  0.618-  34 2.00  40 2.04  16 2.19
  31  0.829  0.325  0.610-  49 2.10  11 2.10   8 2.10
  32  0.970  0.977  0.639-  50 1.88  43 1.93
  33  0.733  0.756  0.612-  25 1.93  28 1.95  21 2.55  54 2.78   4 2.83  49 2.88  13 3.00  53 3.09
                            50 3.23
  34  0.259  0.499  0.568-  27 1.97  30 2.00  24 2.73  20 2.78  19 2.80  16 2.81  40 2.82  53 2.82
                            39 2.86  35 2.93  13 3.06
  35  0.166  0.668  0.475-  39 2.72  44 2.75  19 2.77   2 2.79  12 2.79  17 2.80   3 2.90  24 2.91
                            10 2.91  36 2.92  13 2.93  34 2.93
  36  0.333  0.583  0.382-   3 2.75  18 2.75  38 2.75  47 2.75  41 2.75  10 2.75  17 2.87  35 2.92
                            19 2.98
  37  0.915  0.168  0.471-  52 2.74   2 2.76  12 2.76  14 2.77   7 2.77  55 2.80  51 2.82   8 2.82
                            48 2.83   1 2.84  11 2.92  43 3.04
  38  0.583  0.333  0.382-  23 2.75  36 2.75  41 2.75  48 2.75  18 2.75  51 2.75  14 2.91  52 2.95
                            19 2.98
  39  0.165  0.421  0.479-  35 2.72  44 2.74   7 2.74  19 2.76  55 2.76  20 2.80  22 2.83  53 2.84
                            34 2.86  10 2.98  18 3.01   6 3.02
  40  0.503  0.233  0.574-  29 2.02  30 2.04  11 2.66  20 2.72  34 2.82  22 2.90  21 2.94  16 3.05
                            14 3.05  19 3.07  50 3.22   4 3.31
  41  0.583  0.583  0.382-  38 2.75  45 2.75  47 2.75  51 2.75  36 2.75  56 2.75  17 2.82  52 2.91
                             9 2.97
  42  0.251  0.997  0.567-  26 1.98  24 2.70  54 2.71   8 2.72  43 2.74  20 2.80   2 2.82  21 2.84
                            55 2.93  15 2.99
  43  0.004  0.993  0.568-  32 1.93  13 2.68  24 2.73  42 2.74  11 2.74   8 2.75   2 2.86  50 2.89
                            12 2.92  37 3.04
  44  0.915  0.670  0.473-   9 2.65  12 2.73  39 2.74   7 2.74  35 2.75  13 2.77   5 2.85  10 2.87
                            56 2.87   4 2.98  53 3.00
  45  0.583  0.833  0.382-  23 2.75  41 2.75  46 2.75  56 2.75  47 2.75   5 2.75  15 2.81   9 2.86

  46  0.333  0.083  0.382-   6 2.75  18 2.75  45 2.75  47 2.75   1 2.75  23 2.75  15 2.84  55 2.88
                            22 2.99
  47  0.333  0.833  0.382-   1 2.75  36 2.75  41 2.75  46 2.75  45 2.75   3 2.75  17 2.85  15 2.91
                             2 2.94
  48  0.833  0.083  0.382-   3 2.75   5 2.75  38 2.75  51 2.75   1 2.75  23 2.75  37 2.83  12 2.89
                            14 2.90
  49  0.748  0.510  0.567-  28 2.03  31 2.10  16 2.63  54 2.71  53 2.75   8 2.88  33 2.88  52 2.90
                             9 2.90   7 2.94  11 3.10
  50  0.784  0.016  0.634-  32 1.88  25 1.95  29 1.96  11 2.85  43 2.89  13 3.12  40 3.22  33 3.23
                            21 3.44
  51  0.833  0.333  0.382-   1 2.75  41 2.75  48 2.75  56 2.75  38 2.75   6 2.75  37 2.82   7 2.89
                            52 2.92
  52  0.668  0.419  0.476-  17 2.73  37 2.74   7 2.74  19 2.77  14 2.83   9 2.83  49 2.90  41 2.91
                            51 2.92  11 2.93  16 2.94  38 2.95
  53  0.002  0.501  0.570-  28 1.98  27 2.01  20 2.71  49 2.75  13 2.78  34 2.82  39 2.84   8 2.84
                             7 2.99  44 3.00  33 3.09
  54  0.506  0.760  0.563-  21 2.68  49 2.71  42 2.71  33 2.78  16 2.79   9 2.80  15 2.81  24 2.82
                            17 2.93   4 3.28
  55  0.169  0.168  0.474-   2 2.73  22 2.75  39 2.76   7 2.77   8 2.77  15 2.77  37 2.80  20 2.88
                            46 2.88   6 2.89   1 2.92  42 2.93
  56  0.833  0.583  0.382-   5 2.75   6 2.75  45 2.75  51 2.75  10 2.75  41 2.75   7 2.86   9 2.87
                            44 2.87

  LATTYP: Found a hexagonal cell.
 ALAT       =    11.0025815153
 C/A-ratio  =     2.3805127059

  Lattice vectors:

 A1 = (   5.5012907576,  -9.5285150994,   0.0000000000)
 A2 = ( -11.0025815153,   0.0000000000,   0.0000000000)
 A3 = (   0.0000000000,   0.0000000000, -26.1917850943)

Analysis of symmetry for initial positions (statically):
 Subroutine PRICEL returns:
 Original cell was already a primitive cell.

 Routine SETGRP: Setting up the symmetry group for a
 hexagonal supercell.

 Subroutine GETGRP returns: Found  1 space group operations
 (whereof  1 operations were pure point group operations)
 out of a pool of 24 trial point group operations.

The static configuration has the point symmetry C_1 .

Analysis of symmetry for dynamics (positions and initial velocities):
 Subroutine PRICEL returns:
 Original cell was already a primitive cell.

[...]

The dynamic configuration has the point symmetry C_1 .

Analysis of constrained symmetry for selective dynamics:
 Subroutine PRICEL returns:
 Original cell was already a primitive cell.

[...]
      7     -19.4088      2.00000
      8     -19.1700      2.00000
      9      -8.9951      2.00000
     10      -8.6609      2.00000
     11      -8.4444      2.00000
     12      -8.0602      2.00000
     13      -7.9444      2.00000
     14      -7.9079      2.00000
     15      -7.8417      2.00000
     16      -7.7636      2.00000
     17      -7.7318      2.00000
     18      -7.6540      2.00000
     19      -7.5517      2.00000
     20      -7.5015      2.00000
     21      -7.4780      2.00000
     22      -7.4383      2.00000
     23      -7.4037      2.00000
     24      -7.3565      2.00000
     25      -7.3300      2.00000
     26      -7.3113      2.00000
     27      -7.2732      2.00000
     28      -7.2500      2.00000
     29      -7.1826      2.00000
     30      -7.1639      2.00000
     31      -7.1453      2.00000
     32      -7.1244      2.00000
     33      -7.1001      2.00000
     34      -7.0845      2.00000
     35      -7.0291      2.00000
     36      -7.0115      2.00000
     37      -6.9800      2.00000
     38      -6.9444      2.00000
     39      -6.9341      2.00000
     40      -6.9058      2.00000
     41      -6.8924      2.00000
     42      -6.8529      2.00000
     43      -6.8322      2.00000
     44      -6.8251      2.00000
     45      -6.7923      2.00000
     46      -6.7850      2.00000
     47      -6.7677      2.00000
     48      -6.7284      2.00000
     49      -6.7076      2.00000
     50      -6.6721      2.00000
     51      -6.6589      2.00000
     52      -6.6223      2.00000
     53      -6.5981      2.00000
     54      -6.5758      2.00000
     55      -6.5383      2.00000
     56      -6.5262      2.00000
     57      -6.5161      2.00000
     58      -6.4943      2.00000
     59      -6.4410      2.00000
     60      -6.4242      2.00000
[...]
    322       3.8652      0.00000
    323       3.9181      0.00000
    324       4.0543      0.00000
    325       4.1941      0.00000
    326       4.3762      0.00000
    327       4.4290      0.00000
    328       4.4850      0.00000
    329       4.5412      0.00000
    330       4.6244      0.00000
    331       4.7740      0.00000
    332       4.8298      0.00000
    333       4.9176      0.00000
    334       4.9646      0.00000
    335       5.0616      0.00000
    336       5.0683      0.00000

 soft charge-density along one line, spin component           1
         0         1         2         3         4         5         6         7         8         9
 total charge-density along one line

------------------------ aborting loop because EDIFF is reached ----------------------------------------

 VOLUME and BASIS-vectors are now :
  energy-cutoff  :      400.00
  volume of cell :     2745.90
      direct lattice vectors                 reciprocal lattice vectors
    11.002581515  0.000000000  0.000000000     0.090887761 -0.052474073  0.000000000
     5.501290758  9.528515099  0.000000000     0.000000000  0.104948147  0.000000000
     0.000000000  0.000000000 26.191785094     0.000000000  0.000000000  0.038179910

  length of vectors
    11.002581515 11.002581515 26.191785094     0.104948147  0.104948147  0.038179910

 FORCES acting on ions
    electron-ion (+dipol)            ewald-force                    non-local-force                 convergence-correction
   -.375E+01 0.876E+01 0.252E+04   0.379E+01 -.854E+01 -.252E+04   0.201E-01 -.231E+00 -.179E+00   0.186E-02 -.800E-03 -.421E-02
   -.800E+01 0.221E+02 0.298E+03   0.800E+01 -.211E+02 -.297E+03   -.448E-02 -.915E+00 -.162E+01   0.505E-02 -.442E-02 -.387E-03
   -.699E+01 0.328E+01 0.250E+04   0.787E+01 -.354E+01 -.250E+04   -.539E+00 0.225E+00 -.771E-01   0.106E-02 -.120E-02 -.271E-02
   0.537E+01 -.654E+01 -.607E+03   -.560E+01 0.611E+01 0.607E+03   0.228E+00 0.434E+00 -.163E+00   0.600E-03 0.311E-02 0.270E-02
   0.729E+02 -.322E+02 0.244E+04   -.738E+02 0.321E+02 -.244E+04   0.457E+00 0.127E+00 -.198E+00   -.273E-02 -.177E-02 -.113E-02
   -.700E+00 -.159E+01 0.251E+04   0.586E+00 0.137E+01 -.251E+04   0.979E-01 0.202E+00 -.177E+00   -.140E-02 0.122E-02 -.328E-02
   0.170E+02 -.286E+02 0.398E+03   -.167E+02 0.288E+02 -.398E+03   -.221E+00 -.247E+00 -.371E-01   -.158E-02 0.658E-02 0.106E-02
   -.504E+02 0.367E+02 -.170E+04   0.513E+02 -.377E+02 0.170E+04   -.975E+00 0.108E+01 0.154E+01   0.507E-03 0.456E-02 0.739E-02
   -.356E+02 -.666E+02 0.347E+03   0.361E+02 0.663E+02 -.347E+03   -.471E+00 0.338E+00 -.305E+00   0.299E-02 -.266E-03 0.274E-02
   -.883E+00 -.481E+01 0.250E+04   0.951E+00 0.457E+01 -.250E+04   0.705E-02 0.115E+00 -.557E+00   -.159E-02 0.809E-03 -.259E-02
   0.453E+02 -.381E+01 -.168E+04   -.463E+02 0.271E+01 0.168E+04   0.981E+00 0.111E+01 -.558E-01   0.201E-02 0.329E-02 -.152E-03
   0.732E+02 -.166E+02 0.347E+03   -.733E+02 0.163E+02 -.346E+03   0.146E+00 0.291E+00 -.110E+01   -.131E-02 -.457E-02 0.288E-02
   -.220E+02 -.359E+02 -.162E+04   0.223E+02 0.369E+02 0.162E+04   -.277E+00 -.990E+00 0.277E+01   0.446E-02 -.922E-02 0.256E-02
   0.352E+02 0.642E+02 0.363E+03   -.344E+02 -.639E+02 -.362E+03   -.772E+00 -.253E+00 -.103E+01   -.297E-02 0.141E-02 0.404E-03
   -.789E+02 -.155E+01 0.381E+03   0.790E+02 0.204E+01 -.381E+03   -.139E+00 -.497E+00 0.773E+00   0.403E-02 -.321E-02 -.811E-03
   -.577E+02 -.970E+02 -.200E+04   0.598E+02 0.991E+02 0.200E+04   -.207E+01 -.208E+01 0.127E+01   0.417E-02 -.684E-03 -.638E-02
   -.102E+02 0.967E+00 0.387E+03   0.102E+02 -.151E+01 -.388E+03   -.297E-01 0.539E+00 0.109E+01   0.635E-02 0.171E-02 -.575E-02
   -.220E+02 0.931E+01 0.249E+04   0.223E+02 -.909E+01 -.249E+04   -.133E+00 -.152E+00 0.205E+00   0.927E-03 -.472E-03 -.214E-02
   -.222E+02 -.362E+01 0.301E+03   0.216E+02 0.389E+01 -.300E+03   0.542E+00 -.270E+00 -.779E+00   0.201E-02 0.162E-03 0.188E-02
   -.808E+01 -.355E+02 -.176E+04   0.811E+01 0.369E+02 0.176E+04   -.481E-01 -.138E+01 0.172E+01   0.239E-02 -.231E-02 0.101E-01
   0.155E+03 0.560E+02 -.250E+04   -.154E+03 -.592E+02 0.250E+04   -.115E+01 0.326E+01 0.122E+01   0.127E-02 0.279E-03 -.472E-02
   -.312E+02 0.830E+02 0.312E+03   0.308E+02 -.832E+02 -.311E+03   0.345E+00 0.181E+00 -.553E+00   0.525E-02 0.919E-03 0.779E-02
   0.379E+01 0.588E+02 0.244E+04   -.355E+01 -.591E+02 -.244E+04   -.204E+00 0.143E-02 0.260E+00   -.137E-02 -.131E-02 -.964E-03
   -.451E+02 0.124E+02 -.197E+04   0.462E+02 -.116E+02 0.197E+04   -.104E+01 -.824E+00 0.106E+01   0.373E-03 -.290E-02 0.365E-02
   -.278E+02 0.990E+02 -.179E+04   0.296E+02 -.105E+03 0.181E+04   -.179E+01 0.562E+01 -.238E+02   -.950E-04 0.391E-02 0.490E-02
   0.101E+03 -.477E+02 -.168E+04   -.109E+03 0.552E+02 0.170E+04   0.708E+01 -.749E+01 -.252E+02   0.289E-03 0.486E-02 -.119E-02
   -.624E+02 -.368E+00 -.160E+04   0.621E+02 0.370E+01 0.163E+04   0.339E+00 -.333E+01 -.278E+02   -.478E-03 -.118E-02 -.348E-02
   0.167E+02 0.102E+03 -.162E+04   -.155E+02 -.114E+03 0.165E+04   -.123E+01 0.114E+02 -.245E+02   -.263E-02 -.904E-03 -.390E-02
   0.522E+02 -.127E+03 -.163E+04   -.571E+02 0.136E+03 0.165E+04   0.486E+01 -.862E+01 -.191E+02   -.242E-02 0.423E-02 -.368E-02
   -.240E+02 -.633E+02 -.165E+04   0.249E+02 0.615E+02 0.168E+04   -.885E+00 0.185E+01 -.274E+02   -.460E-02 0.424E-03 -.257E-02
   0.428E+01 -.124E+01 -.160E+04   -.314E+01 0.304E+01 0.163E+04   -.114E+01 -.181E+01 -.264E+02   0.162E-02 0.385E-02 -.133E-02
   -.215E+03 0.409E+02 -.171E+04   0.231E+03 -.457E+02 0.173E+04   -.163E+02 0.480E+01 -.217E+02   -.137E-02 0.854E-03 0.109E-02
   0.142E+03 0.811E+02 -.225E+04   -.140E+03 -.798E+02 0.225E+04   -.179E+01 -.134E+01 -.187E+01   0.384E-02 -.551E-02 -.141E-01
   -.335E+02 -.490E+02 -.159E+04   0.332E+02 0.490E+02 0.159E+04   0.353E+00 0.296E-01 -.255E+01   -.487E-03 -.727E-02 0.530E-02
   -.114E+02 -.384E+01 0.297E+03   0.109E+02 0.318E+01 -.297E+03   0.458E+00 0.671E+00 -.115E+00   0.108E-03 -.411E-03 0.321E-02
   -.248E+02 0.670E+01 0.228E+04   0.252E+02 -.662E+01 -.228E+04   -.189E+00 -.149E+00 -.181E+01   0.277E-02 0.588E-03 -.134E-02
   0.239E+02 0.513E+01 0.391E+03   -.241E+02 -.507E+01 -.391E+03   0.220E+00 -.460E-01 0.575E+00   0.176E-02 0.438E-02 0.204E-02
   -.152E+02 -.943E+01 0.228E+04   0.157E+02 0.986E+01 -.228E+04   -.193E+00 -.234E+00 -.147E+01   0.580E-03 0.217E-02 -.108E-02
   -.135E+02 -.574E+01 0.288E+03   0.132E+02 0.614E+01 -.285E+03   0.324E+00 -.391E+00 -.202E+01   0.308E-02 0.111E-02 0.997E-02
   0.299E+01 0.995E+01 -.153E+04   -.255E+01 -.942E+01 0.153E+04   -.433E+00 -.516E+00 -.262E+01   -.474E-02 -.451E-02 0.597E-02
   -.986E+01 -.152E+01 0.229E+04   0.971E+01 0.131E+01 -.229E+04   0.239E+00 0.150E+00 -.150E+01   0.114E-02 0.145E-02 -.384E-03
   0.528E+02 0.108E+03 -.164E+04   -.526E+02 -.108E+03 0.164E+04   -.187E+00 -.338E+00 -.138E+01   0.175E-03 0.374E-03 0.377E-02
   -.780E+02 0.741E+01 -.155E+04   0.782E+02 -.822E+01 0.155E+04   -.163E+00 0.802E+00 -.253E+01   0.318E-02 0.788E-03 -.382E-04
   0.544E+02 -.602E+02 0.355E+03   -.541E+02 0.597E+02 -.355E+03   -.316E+00 0.443E+00 0.123E+00   -.265E-02 0.204E-04 0.386E-03
   -.321E+02 -.129E+02 0.223E+04   0.317E+02 0.125E+02 -.223E+04   0.312E+00 0.233E+00 -.144E+01   -.105E-02 -.209E-02 -.291E-03
   -.275E+02 0.309E+02 0.228E+04   0.274E+02 -.313E+02 -.228E+04   0.214E+00 0.185E+00 -.201E+01   0.800E-03 -.227E-02 -.232E-02
   -.281E+02 0.116E+02 0.229E+04   0.284E+02 -.119E+02 -.229E+04   -.137E+00 0.246E+00 -.149E+01   0.252E-02 -.206E-02 -.898E-03
   0.278E+02 -.119E+02 0.228E+04   -.278E+02 0.123E+02 -.228E+04   -.765E-01 -.195E+00 -.187E+01   -.132E-02 0.957E-04 -.330E-02
   0.106E+03 -.677E+02 -.155E+04   -.106E+03 0.681E+02 0.155E+04   0.471E+00 -.373E+00 -.125E+01   -.175E-02 0.696E-03 0.553E-02
   -.997E+02 -.124E+03 -.250E+04   0.989E+02 0.121E+03 0.250E+04   0.833E+00 0.320E+01 -.127E+01   -.556E-02 -.919E-03 0.271E-02
   0.354E+02 -.220E+02 0.230E+04   -.360E+02 0.221E+02 -.230E+04   0.244E+00 0.401E-01 -.201E+01   -.202E-03 0.435E-02 -.247E-02
   0.129E+02 -.126E+02 0.317E+03   -.125E+02 0.126E+02 -.317E+03   -.422E+00 0.233E-01 0.218E+00   0.272E-02 0.487E-02 -.440E-03
   0.457E+01 0.692E+02 -.152E+04   -.405E+01 -.685E+02 0.152E+04   -.519E+00 -.643E+00 -.176E+01   0.171E-02 -.740E-02 0.427E-02
   0.680E+02 0.324E+02 -.160E+04   -.673E+02 -.324E+02 0.160E+04   -.642E+00 -.564E-01 0.277E+00   -.315E-02 -.694E-02 -.255E-02
   -.240E+02 0.230E+02 0.351E+03   0.238E+02 -.229E+02 -.351E+03   0.215E+00 -.131E+00 -.548E+00   0.197E-02 0.211E-02 0.260E-02
   0.341E+02 -.319E+02 0.229E+04   -.344E+02 0.323E+02 -.229E+04   0.437E-01 -.226E+00 -.189E+01   -.256E-02 0.896E-03 -.516E-03
   0.154E+02 -.385E+01 0.223E+03   0.000E+00 0.185E-12 0.409E-11   -.155E+02 0.388E+01 -.223E+03   0.256E-01 -.854E-02 0.138E-01

 POSITION                                       TOTAL-FORCE (eV/Angst)
      1.37532      0.79404     10.00000         0.062324     -0.013188     -0.267453
      6.89619      8.77358     12.48833         0.001922     -0.002997      0.000350
      5.50129      7.94043     10.00000         0.340621     -0.036275     -0.241064
     12.43706      8.73776     13.66489        -0.003592      0.001357      0.000101
     13.75323      7.94043     10.00000        -0.510965      0.113670     -0.180289
      2.75065      3.17617     10.00000        -0.017988     -0.021059     -0.259592
     12.38755      3.99788     12.38780        -0.005989      0.001459      0.001424
      1.37492      2.31739     14.68519         0.002419      0.002468      0.005407
     11.08721      6.42385     12.43395        -0.005014     -0.000940     -0.001110
      4.12597      5.55830     10.00000         0.072991     -0.129486     -0.033092
      9.46170      2.22427     14.79188         0.003730      0.006781      0.004356
     15.07033      8.76558     12.44356        -0.003574     -0.002921     -0.009461
     14.90508      7.33215     14.74029        -0.008933     -0.001199      0.004903
      8.23301      1.55195     12.43305        -0.006577      0.003475     -0.003737
      9.71069      8.75522     12.37708        -0.001895     -0.010753      0.000802
      8.38452      4.84335     15.00480        -0.007100     -0.001463      0.004336
      8.28215      6.35166     12.36433         0.005424     -0.007105     -0.003929
      5.50129      3.17617     10.00000         0.117679      0.072903     -0.226697
      6.88549      3.97196     12.50901         0.007246      0.000103      0.004261
      4.10894      2.42226     14.80241        -0.011112      0.002330      0.001927
     10.85003      9.36532     15.97410        -0.009415      0.010790      0.010779
      5.52882      1.53976     12.48833         0.002265     -0.001837     -0.002830
      6.87661      0.79404     10.00000         0.043340     -0.242217     -0.225245
      6.92601      7.15258     14.87299        -0.008224     -0.001225      0.005614
     13.28348      8.13464     17.35507        -0.010214      0.004531      0.011363
      3.60274      1.00121     16.33923        -0.001869     -0.001260     -0.003756
      4.20611      5.57847     16.01968        -0.011873      0.004057      0.003830
     12.43787      5.28350     16.21335         0.003858      0.005587      0.000162
      6.98835      1.06141     16.59962        -0.003314      0.003707      0.004840
      6.79582      3.87115     16.15477         0.001030      0.004604     -0.000940
     10.93241      3.10231     15.99905        -0.001823     -0.005456     -0.004686
     16.05994      9.31385     16.75316        -0.007993      0.003748      0.000232
     12.20141      7.21153     16.06845        -0.003420     -0.013670      0.004769
      5.58068      4.76946     14.86321         0.007210      0.004992     -0.001938
      5.48980      6.37055     12.45753        -0.005009      0.001213     -0.003029
      6.87661      5.55830     10.00000         0.211365     -0.069574      0.222633
     10.98851      1.60624     12.34519        -0.001745      0.012720      0.001247
      8.25194      3.17617     10.00000         0.239891      0.194607      0.302920
      4.12865      4.00936     12.51357        -0.000721      0.007939     -0.001774
      6.81946      2.22019     14.94423         0.003556      0.010663      0.004131
      9.62726      5.55830     10.00000         0.083363     -0.060457      0.190689
      8.24717      9.50225     14.87248         0.002606      0.015659     -0.001336
      5.50726      9.47771     14.88032         0.005307     -0.003093     -0.001020
     13.74494      6.38998     12.38426        -0.000792     -0.004204     -0.005784
     11.00258      7.94043     10.00000        -0.086981     -0.119248      0.132485
      4.12597      0.79404     10.00000         0.064126     -0.215792      0.119087
      8.25194      7.94043     10.00000         0.131377     -0.050658      0.080657
      9.62726      0.79404     10.00000        -0.077882      0.202012      0.129830
     11.00547      4.84911     14.84948        -0.001240      0.006650     -0.003908
      8.71234      0.14517     16.59587         0.015821      0.007933     -0.000682
     11.00258      3.17617     10.00000        -0.319985      0.152287      0.126064
      9.64793      3.98835     12.44934        -0.003880      0.002957     -0.002877
      2.76891      4.79232     14.83932        -0.005008     -0.001439     -0.002560
      9.74793      7.24952     14.75253         0.014919      0.005477      0.002085
      2.77709      1.59947     12.40960        -0.003268      0.002213      0.006438
     12.37790      5.55830     10.00000        -0.296994      0.148622      0.101067
    total drift:                                0.009724      0.021907      0.000308

  FREE ENERGIE OF THE ION-ELECTRON SYSTEM (eV)
  free  energy   TOTEN  =      -232.00597487 eV

  energy  without entropy=     -231.80788203  energy(sigma->0) =     -231.90692845

 d Force = 0.2166609E-03[ 0.141E-03, 0.292E-03]  d Energy = 0.2214512E-03-0.479E-05
 d Force =-0.9112869E+00[-0.908E+00,-0.915E+00]  d Ewald  =-0.9112893E+00 0.241E-05

 stress matrix after NEB project (eV)
      0.00000      0.00000      0.00000
      0.00000      0.00000      0.00000
      0.00000      0.00000      0.00000
  FORCES: max atom, RMS     0.017924    0.008385
  FORCE total and by dimension    0.062747    0.015821
  Stress total and by dimension    0.000000    0.000000
 Conjugate gradient step on ions:
 trial-energy change:   -0.000221  1 .order   -0.000217   -0.000292   -0.000141
  (g-gl).g = 0.296E-03      g.g   = 0.286E-03  gl.gl    = 0.252E-03
 g(Force)  = 0.286E-03   g(Stress)= 0.000E+00 ortho     =-0.695E-05
 gamma     =   1.17656
 trial     =   1.05128
 opt step  =   1.79187  (harmonic =   2.03178) maximal distance =0.00318676
 next E    =  -232.006026   (d E  =  -0.00027)

 reached required accuracy - stopping structural energy minimisation