 vasp.5.4.1 24Jun15 (build Mar 14 2019 10:18:33) complex

 executed on INTEL-19.0.2+OPENMPI date 2023.01.31  00:17:08

 INCAR:
 POTCAR:    PAW_PBE Au 04Oct2007
 POTCAR:    PAW_PBE Pd 04Jan2005
 POTCAR:    PAW_PBE Au 04Oct2007

 POTCAR:    PAW_PBE Pd 04Jan2005

 Optimization of the real space projectors (new method)

 maximal supplied QI-value         = 15.12
 optimisation between [QCUT,QGAM] = [ 10.13, 20.41] = [ 28.73,116.64] Ry
 Optimized for a Real-space Cutoff    1.51 Angstroem

   l    n(q)    QCUT    max X(q) W(low)/X(q) W(high)/X(q)  e(spline)
   2      8    10.129    60.898    0.46E-03    0.46E-03    0.14E-06
   2      8    10.129    58.894    0.47E-03    0.47E-03    0.14E-06
   0      9    10.129   109.617    0.16E-03    0.11E-03    0.54E-07
   0      9    10.129    75.026    0.15E-03    0.11E-03    0.52E-07
   1      9    10.129    16.344    0.96E-04    0.15E-03    0.14E-06
   1      9    10.129    10.160    0.81E-04    0.12E-03    0.11E-06
 Optimization of the real space projectors (new method)

 maximal supplied QI-value         = 14.36
 optimisation between [QCUT,QGAM] = [ 10.20, 20.39] = [ 29.12,116.47] Ry
 Optimized for a Real-space Cutoff    1.51 Angstroem

   l    n(q)    QCUT    max X(q) W(low)/X(q) W(high)/X(q)  e(spline)
   2      8    10.197    59.108    0.26E-03    0.14E-03    0.96E-07
   2      8    10.197    58.101    0.27E-03    0.14E-03    0.98E-07
   0      9    10.197   102.235    0.54E-04    0.60E-05    0.72E-07
   0      9    10.197    58.388    0.52E-04    0.60E-05    0.68E-07
   1      9    10.197    22.191    0.18E-03    0.25E-03    0.79E-07
   1      9    10.197    15.590    0.15E-03    0.21E-03    0.69E-07
  PAW_PBE Au 04Oct2007                  :
  PAW_PBE Pd 04Jan2005                  :

 POSCAR: Au Pd
  positions in cartesian coordinates
 exchange correlation table for  LEXCH =        8
   RHO(1)=    0.500       N(1)  =     2000
   RHO(2)=  100.500       N(2)  =     4000

 VTST: version 3.2, (02/03/18)

 CHAIN: initializing optimizer

 OPT: Using VASP Conjugate-Gradient optimizer
 CHAIN: Read ICHAIN            0

 POSCAR: Au Pd
  positions in cartesian coordinates

 ion  position               nearest neighbor table
   1  0.083  0.083  0.408-   5 2.75   3 2.75  21 2.75  27 2.75  40 2.75  29 2.75  14 2.75  32 2.75
                            44 2.75
   2  0.917  0.417  0.500-  40 2.75  13 2.75  11 2.75  25 2.75   5 2.75  42 2.75  44 2.75  35 2.75
                            24 2.75  41 2.75  26 2.75   3 2.75
   3  0.083  0.333  0.408-  35 2.75  29 2.75   1 2.75  41 2.75  46 2.75  45 2.75  40 2.75   5 2.75
                             2 2.75
   4  0.000  0.750  0.592-  28 2.75  23 2.75  26 2.75  22 2.75  36 2.75  43 2.75   7 2.75  48 2.75
                            25 2.75
   5  0.167  0.167  0.500-   1 2.75   6 2.75  13 2.75   2 2.75  32 2.75  35 2.75  37 2.75  30 2.75
                            44 2.75   3 2.75  29 2.75   8 2.75
   6  0.250  0.000  0.592-   5 2.75  37 2.75   8 2.75  13 2.75   7 2.75  38 2.75  34 2.75  43 2.75
                            32 2.75
   7  0.250  0.750  0.592-  32 2.75  33 2.75   6 2.75  22 2.75  43 2.75  47 2.75   4 2.75  38 2.75
                            23 2.75
   8  0.250  0.250  0.592-  35 2.75  30 2.75  26 2.75   6 2.75  34 2.75  22 2.75  16 2.75  13 2.75
                             5 2.75
   9  0.583  0.583  0.408-  42 2.75  19 2.75  21 2.75  40 2.75  15 2.75  41 2.75  17 2.75  24 2.75
                            33 2.75
  10  0.833  0.833  0.408-  28 2.75  14 2.75  31 2.75  41 2.75  46 2.75  15 2.75  27 2.75  25 2.75
                            20 2.75
  11  0.750  0.500  0.592-  42 2.75   2 2.75  13 2.75  38 2.75  12 2.75  48 2.75  47 2.75  26 2.75
                            24 2.75
  12  0.750  0.250  0.592-  24 2.75  44 2.75  36 2.75  43 2.75  11 2.75  47 2.75  16 2.75  13 2.75
                            39 2.75
  13  0.000  0.250  0.592-   2 2.75   5 2.75   6 2.75  11 2.75  26 2.75  43 2.75   8 2.75  12 2.75
                            44 2.75
  14  0.833  0.083  0.408-  44 2.75  19 2.75  27 2.75  40 2.75  10 2.75   1 2.75  31 2.75  28 2.75
                            39 2.75
  15  0.583  0.833  0.408-  20 2.75   9 2.75  29 2.75  31 2.75  41 2.75  21 2.75  10 2.75  42 2.75
                            37 2.75
  16  0.500  0.250  0.592-  18 2.75  39 2.75  34 2.75  36 2.75  22 2.75  47 2.75   8 2.75  12 2.75
                            30 2.75
  17  0.333  0.583  0.408-  33 2.75  21 2.75  27 2.75  19 2.75  45 2.75   9 2.75  46 2.75  18 2.75
                            23 2.75
  18  0.417  0.417  0.500-  45 2.75  16 2.75  22 2.75  30 2.75  33 2.75  39 2.75  23 2.75  24 2.75
                            35 2.75  17 2.75  19 2.75  47 2.75
  19  0.583  0.333  0.408-  24 2.75  14 2.75  17 2.75   9 2.75  31 2.75  40 2.75  45 2.75  39 2.75
                            18 2.75
  20  0.667  0.917  0.500-  15 2.75  48 2.75  34 2.75  25 2.75  39 2.75  42 2.75  30 2.75  37 2.75
                            28 2.75  31 2.75  10 2.75  36 2.75
  21  0.333  0.833  0.408-  37 2.75   9 2.75  17 2.75  29 2.75   1 2.75  15 2.75  27 2.75  33 2.75
                            32 2.75
  22  0.250  0.500  0.592-  23 2.75  18 2.75   8 2.75  16 2.75   4 2.75   7 2.75  26 2.75  47 2.75
                            35 2.75
  23  0.167  0.667  0.500-  46 2.75  22 2.75   4 2.75  28 2.75  32 2.75  35 2.75  18 2.75  25 2.75
                            33 2.75  27 2.75  17 2.75   7 2.75
  24  0.667  0.417  0.500-  19 2.75  12 2.75  47 2.75  39 2.75  42 2.75  44 2.75  33 2.75   2 2.75
                            18 2.75   9 2.75  40 2.75  11 2.75
  25  0.917  0.667  0.500-  41 2.75  26 2.75  48 2.75  28 2.75  35 2.75  20 2.75   2 2.75  42 2.75
                            23 2.75  10 2.75  46 2.75   4 2.75
  26  0.000  0.500  0.592-  25 2.75  35 2.75  13 2.75   4 2.75   8 2.75  48 2.75  22 2.75  11 2.75
                             2 2.75
  27  0.083  0.833  0.408-  32 2.75  14 2.75  17 2.75   1 2.75  46 2.75  10 2.75  21 2.75  23 2.75
                            28 2.75
  28  0.917  0.917  0.500-  10 2.75   4 2.75  36 2.75  25 2.75  23 2.75  39 2.75  44 2.75  32 2.75
                            20 2.75  14 2.75  43 2.75  27 2.75
  29  0.333  0.083  0.408-  30 2.75  15 2.75  21 2.75   3 2.75  45 2.75  31 2.75   1 2.75  37 2.75
                             5 2.75
  30  0.417  0.167  0.500-  29 2.75  34 2.75   8 2.75  18 2.75  20 2.75  35 2.75  37 2.75   5 2.75
                            39 2.75  45 2.75  31 2.75  16 2.75
  31  0.583  0.083  0.408-  39 2.75  15 2.75  19 2.75  10 2.75  45 2.75  14 2.75  29 2.75  20 2.75
                            30 2.75
  32  0.167  0.917  0.500-  27 2.75   7 2.75  43 2.75   5 2.75  33 2.75  23 2.75  44 2.75  28 2.75
                            37 2.75   1 2.75  21 2.75   6 2.75
  33  0.417  0.667  0.500-  17 2.75  47 2.75   7 2.75  24 2.75  32 2.75  37 2.75  18 2.75  42 2.75
                            23 2.75  21 2.75   9 2.75  38 2.75
  34  0.500  0.000  0.592-  30 2.75  20 2.75   8 2.75  16 2.75  38 2.75  48 2.75   6 2.75  36 2.75
                            37 2.75
  35  0.167  0.417  0.500-   3 2.75   8 2.75  26 2.75  23 2.75  25 2.75   5 2.75  30 2.75   2 2.75
                            18 2.75  46 2.75  45 2.75  22 2.75
  36  0.750  0.000  0.592-  39 2.75  28 2.75  16 2.75   4 2.75  12 2.75  48 2.75  43 2.75  34 2.75
                            20 2.75
  37  0.417  0.917  0.500-  21 2.75  38 2.75   6 2.75  30 2.75  33 2.75   5 2.75  42 2.75  32 2.75
                            20 2.75  29 2.75  15 2.75  34 2.75
  38  0.500  0.750  0.592-  37 2.75  42 2.75  34 2.75   6 2.75  11 2.75  47 2.75   7 2.75  48 2.75
                            33 2.75
  39  0.667  0.167  0.500-  31 2.75  36 2.75  16 2.75  24 2.75  28 2.75  18 2.75  20 2.75  30 2.75
                            44 2.75  19 2.75  12 2.75  14 2.75
  40  0.833  0.333  0.408-   2 2.75   1 2.75   9 2.75  14 2.75  41 2.75  19 2.75   3 2.75  44 2.75
                            24 2.75
  41  0.833  0.583  0.408-  25 2.75  10 2.75  15 2.75   3 2.75  40 2.75   9 2.75  46 2.75   2 2.75
                            42 2.75
  42  0.667  0.667  0.500-   9 2.75  11 2.75  38 2.75  20 2.75  24 2.75  37 2.75   2 2.75  25 2.75
                            33 2.75  15 2.75  41 2.75  48 2.75
  43  0.000  0.000  0.592-  44 2.75  32 2.75  12 2.75  13 2.75   4 2.75   7 2.75  36 2.75   6 2.75
                            28 2.75
  44  0.917  0.167  0.500-  14 2.75  43 2.75  12 2.75  24 2.75  28 2.75  32 2.75   2 2.75  39 2.75
                             5 2.75  40 2.75  13 2.75   1 2.75
  45  0.333  0.333  0.408-  18 2.75  17 2.75  29 2.75  31 2.75  46 2.75  19 2.75   3 2.75  30 2.75
                            35 2.75
  46  0.083  0.583  0.408-  23 2.75  10 2.75   3 2.75  27 2.75  45 2.75  41 2.75  17 2.75  35 2.75
                            25 2.75
  47  0.500  0.500  0.592-  33 2.75  24 2.75  16 2.75   7 2.75  12 2.75  38 2.75  22 2.75  11 2.75
                            18 2.75
  48  0.750  0.750  0.592-  20 2.75  25 2.75  11 2.75  26 2.75  34 2.75  36 2.75   4 2.75  38 2.75
                            42 2.75

  LATTYP: Found a hexagonal cell.
 ALAT       =    11.0025815153
 C/A-ratio  =     2.2260035120

  Lattice vectors:

 A1 = (   5.5012907576,  -9.5285150994,   0.0000000000)
 A2 = ( -11.0025815153,   0.0000000000,   0.0000000000)
 A3 = (   0.0000000000,   0.0000000000, -24.4917850943)

Analysis of symmetry for initial positions (statically):
 Subroutine PRICEL returns:
 Original cell was already a primitive cell.

 Routine SETGRP: Setting up the symmetry group for a
 hexagonal supercell.

 Subroutine GETGRP returns: Found  1 space group operations
 (whereof  1 operations were pure point group operations)
 out of a pool of 24 trial point group operations.

The static configuration has the point symmetry C_1 .

Analysis of symmetry for dynamics (positions and initial velocities):
 Subroutine PRICEL returns:
 Original cell was already a primitive cell.

[...]

The dynamic configuration has the point symmetry C_1 .

Analysis of constrained symmetry for selective dynamics:
 Subroutine PRICEL returns:
 Original cell was already a primitive cell.

 Routine SETGRP: Setting up the symmetry group for a
 hexagonal supercell.

 Subroutine GETGRP returns: Found  1 space group operations
 (whereof  1 operations were pure point group operations)
 out of a pool of 24 trial point group operations.

The constrained configuration has the point symmetry C_1 .

 KPOINTS: Automatic mesh

Automatic generation of k-mesh.
Space group operators:
 irot       det(A)        alpha          n_x          n_y          n_z        tau_x        tau_y        tau_z
    1     1.000000     0.000000     1.000000     0.000000     0.000000     0.000000     0.000000     0.000000

 Subroutine IBZKPT returns following result:

 Found      6 irreducible k-points:

 Following reciprocal coordinates:
            Coordinates               Weight
  0.250000  0.250000  0.000000     16.000000
  0.000000  0.250000  0.000000     16.000000
 -0.250000  0.000000  0.000000     16.000000
 -0.250000  0.250000  0.000000     16.000000
  0.500000 -0.250000  0.000000     16.000000
[...]
  average eigenvalue GAMMA=   0.3651
  0.3651

[...]

----------------------------------------- Iteration   18(   3)  ---------------------------------------

 eigenvalue-minimisations  :  2510
 total energy-change (2. order) : 0.1532171E-06  (-0.3389820E-06)
 number of electron     503.9998957 magnetization
 augmentation part      197.2704309 magnetization

 DIPCOR: dipole corrections for dipol
 direction  3 min pos     1,
 dipolmoment           0.000000      0.000000      0.017759 electrons x Angstroem
 Tr[quadrupol]    -10256.153410

 energy correction for charged system         0.000000 eV
 dipol+quadrupol energy correction           -0.000011 eV
 added-field ion interaction         -0.126810 eV  (added to PSCEN)

  free energy =  -0.192877922408E+03  energy without entropy=  -0.192629442714E+03

 average (electrostatic) potential at core
  the test charge radii are     1.2098  1.1199
  (the norm of the test charge is              1.0000)
       1 -73.9668       2 -74.1733       3 -73.9014       4 -73.8957       5 -74.1417
       6 -73.9532       7 -73.9607       8 -73.9975       9 -74.0280      10 -73.9261
      11 -73.8610      12 -73.9554      13 -74.0016      14 -73.9197      15 -73.9487
      16 -73.9418      17 -74.0207      18 -74.1760      19 -74.0071      20 -74.0921
      21 -74.0201      22 -73.9590      23 -74.0991      24 -74.1641      25 -80.9609
      26 -80.7904      27 -80.7407      28 -80.9759      29 -80.7416      30 -80.9389
      31 -80.7394      32 -80.9277      33 -80.8976      34 -80.8259      35 -80.9181
      36 -80.8600      37 -80.9641      38 -80.8245      39 -80.9368      40 -80.8052
      41 -80.7346      42 -80.9275      43 -80.8193      44 -80.9323      45 -80.7688
      46 -80.7423      47 -80.7940      48 -80.8578

 E-fermi :  -1.0955     XC(G=0):  -4.5450     alpha+bet : -4.5214

[...]

 k-point     6 :      -0.2500    0.5000    0.0000
  band No.  band energies     occupation
      1      -8.4435      2.00000
      2      -8.0216      2.00000
      3      -7.7982      2.00000
      4      -7.5320      2.00000
      5      -7.2774      2.00000
      6      -7.1567      2.00000
      7      -6.9960      2.00000
      8      -6.8794      2.00000
      9      -6.8241      2.00000
     10      -6.7532      2.00000
     11      -6.6772      2.00000
     12      -6.6481      2.00000
     13      -6.6126      2.00000
     14      -6.5628      2.00000
     15      -6.5384      2.00000
     16      -6.5136      2.00000
     17      -6.4703      2.00000
     18      -6.4435      2.00000
     19      -6.4309      2.00000
     20      -6.3973      2.00000
     21      -6.3624      2.00000
     22      -6.3390      2.00000
     23      -6.3197      2.00000
     24      -6.2712      2.00000
     25      -6.2439      2.00000
     26      -6.2278      2.00000
     27      -6.1958      2.00000
     28      -6.1900      2.00000
     29      -6.1615      2.00000
     30      -6.1323      2.00000
     31      -6.1197      2.00000
     32      -6.0946      2.00000
     33      -6.0653      2.00000
     34      -6.0424      2.00000
     35      -6.0235      2.00000
     36      -6.0058      2.00000
     37      -5.9578      2.00000
     38      -5.9402      2.00000
     39      -5.9089      2.00000
     40      -5.8857      2.00000
     41      -5.8651      2.00000
     42      -5.8525      2.00000
     43      -5.8182      2.00000
     44      -5.7899      2.00000
     45      -5.7602      2.00000
     46      -5.7173      2.00000
     47      -5.7022      2.00000
     48      -5.6813      2.00000
     49      -5.6519      2.00000
     50      -5.6196      2.00000
     51      -5.5982      2.00000
     52      -5.5641      2.00000
     53      -5.5303      2.00000
     54      -5.4999      2.00000
     55      -5.4804      2.00000
     56      -5.4610      2.00000
     57      -5.3917      2.00000
     58      -5.3678      2.00000
     59      -5.3398      2.00000
     60      -5.2862      2.00000
[...]
    292       4.2274      0.00000
    293       4.5034      0.00000
    294       4.5446      0.00000
    295       4.6083      0.00000
    296       4.6263      0.00000
    297       4.7048      0.00000
    298       4.8405      0.00000
    299       4.8912      0.00000
    300       4.9387      0.00000
    301       4.9970      0.00000
    302       5.0496      0.00000
    303       5.0767      0.00000
    304       5.1255      0.00000
    305       5.2104      0.00000
    306       5.2450      0.00000

 soft charge-density along one line, spin component           1
         0         1         2         3         4         5         6         7         8         9
 total charge-density along one line

------------------------ aborting loop because EDIFF is reached ----------------------------------------

 VOLUME and BASIS-vectors are now :
  energy-cutoff  :      400.00
  volume of cell :     2567.68
      direct lattice vectors                 reciprocal lattice vectors
    11.002581515  0.000000000  0.000000000     0.090887761 -0.052474073  0.000000000
     5.501290758  9.528515099  0.000000000     0.000000000  0.104948147  0.000000000
     0.000000000  0.000000000 24.491785094     0.000000000  0.000000000  0.040830017

  length of vectors
    11.002581515 11.002581515 24.491785094     0.104948147  0.104948147  0.040830017

 FORCES acting on ions
    electron-ion (+dipol)            ewald-force                    non-local-force                 convergence-correction
   0.118E+01 -.341E+01 0.221E+04   -.151E+01 0.318E+01 -.221E+04   0.251E+00 0.159E+00 -.131E+00   0.352E-02 0.506E-03 -.148E-01
   0.442E+01 0.786E+01 0.743E+01   -.419E+01 -.709E+01 -.783E+01   -.234E+00 -.766E+00 0.431E+00   0.278E-02 -.670E-03 -.425E-01
   -.123E+02 -.977E+01 0.222E+04   0.128E+02 0.103E+02 -.222E+04   -.355E+00 -.376E+00 0.198E+00   0.587E-02 0.399E-02 -.162E-01
   0.138E+02 -.748E+01 -.224E+04   -.148E+02 0.798E+01 0.224E+04   0.966E+00 -.495E+00 0.234E+00   0.130E-01 -.716E-02 -.219E-01
   0.126E+01 -.438E+01 -.233E+02   -.663E+00 0.381E+01 0.229E+02   -.602E+00 0.569E+00 0.500E+00   0.644E-03 -.173E-03 -.429E-01
   -.618E+01 0.770E+01 -.225E+04   0.643E+01 -.850E+01 0.225E+04   -.247E+00 0.780E+00 0.296E+00   -.719E-02 0.553E-02 -.229E-01
   -.184E+01 -.555E+01 -.224E+04   0.257E+01 0.552E+01 0.224E+04   -.718E+00 0.246E-01 0.211E+00   -.799E-02 -.222E-02 -.211E-01
   -.206E+01 0.430E+01 -.223E+04   0.235E+01 -.403E+01 0.223E+04   -.287E+00 -.276E+00 0.132E+00   -.201E-02 0.350E-02 -.181E-01
   -.159E+02 0.102E+02 0.221E+04   0.169E+02 -.105E+02 -.221E+04   -.682E+00 0.147E+00 -.209E+00   0.506E-02 -.163E-03 -.155E-01
   -.936E+01 0.116E+02 0.222E+04   0.992E+01 -.123E+02 -.222E+04   -.381E+00 0.412E+00 -.383E+00   0.885E-03 -.552E-02 -.177E-01
   -.557E+01 -.166E+02 -.230E+04   0.557E+01 0.179E+02 0.230E+04   -.643E-02 -.127E+01 -.634E-01   -.311E-02 -.137E-01 -.201E-01
   0.229E+01 0.998E+01 -.226E+04   -.262E+01 -.108E+02 0.226E+04   0.301E+00 0.853E+00 0.263E+00   0.686E-02 0.103E-01 -.159E-01
   -.154E+01 0.101E+01 -.226E+04   0.130E+01 -.108E+01 0.226E+04   0.229E+00 0.719E-01 -.261E-01   -.160E-02 0.446E-03 -.217E-01
   0.538E+00 -.270E+01 0.221E+04   -.446E+00 0.279E+01 -.221E+04   -.752E-01 -.632E-01 -.448E+00   -.151E-02 -.132E-02 -.168E-01
   -.432E+01 -.974E+01 0.222E+04   0.439E+01 0.102E+02 -.222E+04   -.317E-01 -.272E+00 -.177E+00   0.202E-02 0.319E-02 -.170E-01
   0.125E+01 0.151E+02 -.225E+04   -.954E+00 -.159E+02 0.225E+04   -.282E+00 0.712E+00 0.129E+00   -.526E-02 0.122E-01 -.160E-01
   0.222E+02 0.526E+01 0.221E+04   -.229E+02 -.505E+01 -.221E+04   0.354E+00 -.218E+00 0.809E-01   -.894E-02 -.151E-02 -.155E-01
   0.963E+01 0.364E+01 -.334E+02   -.997E+01 -.413E+01 0.335E+02   0.329E+00 0.491E+00 -.111E+00   -.324E-02 0.114E-02 -.375E-01
   0.879E+01 0.139E+02 0.221E+04   -.905E+01 -.148E+02 -.221E+04   0.170E+00 0.662E+00 0.121E+00   -.526E-02 -.345E-02 -.170E-01
   -.699E+00 -.225E+01 0.164E+02   0.621E+00 0.259E+01 -.152E+02   0.809E-01 -.339E+00 -.112E+01   -.126E-02 0.150E-02 -.531E-01
   0.630E+01 -.112E+02 0.221E+04   -.666E+01 0.118E+02 -.221E+04   0.245E+00 -.372E+00 -.758E+00   -.814E-04 0.442E-02 -.140E-01
   0.607E+01 -.380E+01 -.228E+04   -.635E+01 0.381E+01 0.228E+04   0.278E+00 -.112E-01 -.639E-01   0.130E-02 0.122E-02 -.209E-01
   0.191E+01 0.463E+01 0.118E+02   -.247E+01 -.408E+01 -.129E+02   0.559E+00 -.538E+00 0.117E+01   -.225E-02 -.186E-02 -.469E-01
   -.721E+01 0.625E+01 -.405E+02   0.724E+01 -.625E+01 0.406E+02   -.223E-01 -.222E-02 -.816E-01   -.299E-04 0.119E-02 -.374E-01
   -.497E+01 0.347E+01 0.249E+02   0.487E+01 -.385E+01 -.248E+02   0.878E-01 0.398E+00 -.416E-01   0.476E-02 -.529E-02 -.492E-01
   0.375E+00 -.114E+02 -.194E+04   -.361E+00 0.115E+02 0.193E+04   -.228E-01 -.163E+00 0.148E+01   0.370E-02 -.773E-02 -.221E-01
   0.677E+01 0.492E+01 0.202E+04   -.695E+01 -.494E+01 -.202E+04   0.116E+00 -.626E-02 -.170E+01   -.252E-02 -.397E-02 -.137E-01
   -.164E+01 0.261E+01 0.757E+01   0.210E+01 -.222E+01 -.703E+01   -.466E+00 -.389E+00 -.487E+00   0.431E-02 -.305E-02 -.428E-01
   -.175E+02 -.141E+02 0.202E+04   0.181E+02 0.142E+02 -.202E+04   -.381E+00 0.261E-01 -.169E+01   0.427E-02 0.436E-02 -.145E-01
   0.259E+01 -.847E+01 0.336E+02   -.263E+01 0.832E+01 -.343E+02   0.380E-01 0.141E+00 0.803E+00   -.380E-02 0.288E-02 -.505E-01
   0.157E+02 -.166E+02 0.202E+04   -.162E+02 0.170E+02 -.202E+04   0.244E+00 -.236E+00 -.169E+01   -.612E-02 0.298E-02 -.166E-01
   -.213E+01 0.376E+00 -.566E+01   0.172E+01 -.337E+00 0.577E+01   0.408E+00 -.420E-01 -.723E-01   0.162E-02 0.157E-02 -.368E-01
   0.488E+01 -.773E-01 -.212E+02   -.434E+01 0.562E+00 0.222E+02   -.540E+00 -.480E+00 -.917E+00   -.218E-02 0.177E-02 -.336E-01
   -.182E+01 0.951E+01 -.195E+04   0.192E+01 -.981E+01 0.195E+04   -.964E-01 0.296E+00 0.167E+01   -.774E-02 0.735E-02 -.175E-01
   -.611E+01 0.255E+01 0.145E+02   0.613E+01 -.235E+01 -.148E+02   -.565E-02 -.203E+00 0.402E+00   -.763E-03 0.145E-02 -.436E-01
   0.309E+01 0.948E+01 -.197E+04   -.296E+01 -.963E+01 0.197E+04   -.134E+00 0.151E+00 0.174E+01   0.545E-02 0.232E-02 -.173E-01
   0.357E+01 -.643E+01 0.549E+01   -.357E+01 0.627E+01 -.499E+01   0.909E-02 0.157E+00 -.449E+00   -.625E-02 0.406E-02 -.436E-01
   -.122E+02 -.685E+01 -.197E+04   0.124E+02 0.674E+01 0.197E+04   -.233E+00 0.106E+00 0.203E+01   -.899E-02 -.228E-02 -.182E-01
   -.958E+00 -.550E+01 -.590E+01   0.921E+00 0.492E+01 0.596E+01   0.405E-01 0.562E+00 0.230E-02   -.131E-02 0.515E-02 -.452E-01
   -.534E+01 -.372E+01 0.202E+04   0.544E+01 0.380E+01 -.201E+04   -.849E-01 0.151E-02 -.163E+01   0.399E-02 0.241E-02 -.154E-01
   -.916E+01 0.805E+01 0.202E+04   0.920E+01 -.813E+01 -.202E+04   0.116E-01 -.232E-01 -.166E+01   0.518E-02 -.121E-02 -.153E-01
   -.155E+01 0.673E+01 -.384E+01   0.152E+01 -.639E+01 0.437E+01   0.345E-01 -.328E+00 -.468E+00   -.224E-02 -.388E-02 -.458E-01
   0.505E+01 0.584E+01 -.194E+04   -.537E+01 -.564E+01 0.194E+04   0.319E+00 -.201E+00 0.187E+01   0.837E-02 -.173E-02 -.206E-01
   -.235E+01 -.924E+01 -.106E+02   0.200E+01 0.853E+01 0.107E+02   0.333E+00 0.712E+00 -.120E+00   0.509E-02 0.180E-02 -.364E-01
   0.881E+01 0.999E+01 0.202E+04   -.907E+01 -.104E+02 -.202E+04   0.222E+00 0.217E+00 -.189E+01   -.451E-02 -.213E-02 -.153E-01
   0.386E+01 0.703E+01 0.202E+04   -.409E+01 -.702E+01 -.202E+04   0.199E+00 0.729E-02 -.178E+01   -.163E-02 -.255E-02 -.143E-01
   -.265E+01 -.937E+01 -.199E+04   0.281E+01 0.980E+01 0.198E+04   -.157E+00 -.422E+00 0.164E+01   -.526E-02 -.422E-02 -.250E-01
   0.109E+01 -.363E+01 -.197E+04   -.122E+01 0.365E+01 0.197E+04   0.119E+00 -.125E-01 0.181E+01   0.262E-02 -.649E-02 -.182E-01
   0.939E-01 -.175E+00 0.217E+01   -.146E-12 0.330E-12 -.296E-11   -.972E-01 0.151E+00 -.970E+00   -.118E-01 0.484E-02 -.125E+01

 POSITION                                       TOTAL-FORCE (eV/Angst)
      1.37532      0.79404     10.00000        -0.067761     -0.065909     -0.153792
     12.38046      3.99423     12.42792        -0.001245      0.004195     -0.006294
      2.75065      3.17617     10.00000         0.195157      0.204808     -0.287969
      4.09272      7.16376     14.93173        -0.004206     -0.002354      0.000164
      2.76956      1.57161     12.46117        -0.000170     -0.004146      0.002972
      2.76772     -0.02442     14.95005        -0.005502     -0.008208      0.002668
      6.88884      7.14178     14.93517         0.006947      0.000176      0.002219
      4.13419      2.38159     14.95184        -0.003317     -0.004699      0.005403
      9.62726      5.55830     10.00000         0.327362     -0.116696     -0.148956
     13.75323      7.94043     10.00000         0.178709     -0.237255     -0.238704
     11.00459      4.80855     15.01913        -0.005463      0.007913      0.006841
      9.62220      2.35932     14.97245        -0.014568     -0.002822      0.007647
      1.36695      2.38470     14.99259        -0.004735     -0.002252      0.002565
      9.62726      0.79404     10.00000         0.015611      0.028922     -0.084082
     11.00258      7.94043     10.00000         0.039635      0.144185     -0.207516
      6.88062      2.35272     14.95880         0.009396     -0.006893      0.009225
      6.87661      5.55830     10.00000        -0.356874     -0.004430     -0.247734
      6.85455      3.95702     12.48002        -0.012872      0.004640     -0.002909
      8.25194      3.17617     10.00000        -0.100968     -0.274177     -0.201609
     12.37670      8.74884     12.43023         0.001717      0.001998      0.019302
      8.25194      7.94043     10.00000        -0.116454      0.188430     -0.062466
      5.48662      4.77007     15.00897        -0.003523     -0.000029      0.000373
      5.47848      6.37380     12.41589         0.001709      0.009710      0.001998
      9.63317      3.97087     12.48750        -0.000508      0.002195     -0.013476
     13.75377      6.36014     12.41205        -0.004559      0.004716      0.004902
      2.73779      4.77907     14.78474        -0.004467      0.004802      0.001022
      5.50129      7.94043     10.00000        -0.065275     -0.039014      0.191201
     15.14099      8.74910     12.43437        -0.002207      0.000320      0.004764
      4.12597      0.79404     10.00000         0.222724      0.128517      0.231585
      5.49869      1.58845     12.40627        -0.000187      0.000722     -0.001551
      6.87661      0.79404     10.00000        -0.217909      0.206378      0.213028
      6.87005      8.73665     12.44699         0.001803     -0.001757      0.003040
      8.25724      6.37865     12.46721        -0.005946      0.006387     -0.002043
      5.51646     -0.02558     14.77236        -0.002443      0.000992      0.007997
      4.12862      3.97512     12.42154         0.010605      0.000058     -0.000087
      8.24722     -0.01269     14.80040        -0.001105      0.007532     -0.001934
      9.61285      8.72567     12.43600        -0.001551     -0.000057      0.004390
      9.63547      7.14158     14.80098        -0.001228     -0.001900      0.008113
      8.24982      1.57907     12.45258         0.003031     -0.015042      0.011569
     11.00258      3.17617     10.00000         0.019772      0.087357      0.246764
     12.37790      5.55830     10.00000         0.060822     -0.099642      0.190140
     11.00050      6.36213     12.44538        -0.000206      0.004771      0.012398
     -0.00969     -0.00277     14.78543         0.001628      0.004981      0.005989
     10.99356      1.57099     12.45460        -0.007066     -0.000620     -0.000152
      5.50129      3.17617     10.00000        -0.040268     -0.181732      0.263504
      4.12597      5.55830     10.00000        -0.041079      0.017770      0.192142
      8.25708      4.76554     14.85111        -0.000282      0.004760      0.007895
     12.37035      7.16382     14.78740        -0.002686     -0.007599     -0.000551
    total drift:                               -0.015033     -0.018631     -0.054325

  FREE ENERGIE OF THE ION-ELECTRON SYSTEM (eV)
  free  energy   TOTEN  =      -192.87792241 eV

  energy  without entropy=     -192.62944271  energy(sigma->0) =     -192.75368256

 d Force = 0.1008940E-05[-0.124E-05, 0.326E-05]  d Energy = 0.6067567E-06 0.402E-06
 d Force = 0.2429801E+01[ 0.243E+01, 0.243E+01]  d Ewald  = 0.2429801E+01 0.291E-09

 stress matrix after NEB project (eV)
      0.00000      0.00000      0.00000
      0.00000      0.00000      0.00000
      0.00000      0.00000      0.00000
  FORCES: max atom, RMS     0.019481    0.008244
  FORCE total and by dimension    0.057114    0.019302
  Stress total and by dimension    0.000000    0.000000

 reached required accuracy - stopping structural energy minimisation