 vasp.5.4.1 24Jun15 (build Mar 14 2019 10:18:33) complex

 executed on INTEL-19.0.2+OPENMPI date 2023.01.23  16:11:09

 INCAR:
 POTCAR:    PAW_PBE Au 04Oct2007
 POTCAR:    PAW_PBE O 08Apr2002
 POTCAR:    PAW_PBE Pd 04Jan2005
 POTCAR:    PAW_PBE Au 04Oct2007

 POTCAR:    PAW_PBE O 08Apr2002

 POTCAR:    PAW_PBE Pd 04Jan2005

 Optimization of the real space projectors (new method)

 maximal supplied QI-value         = 15.12
 optimisation between [QCUT,QGAM] = [ 10.13, 20.41] = [ 28.73,116.64] Ry
 Optimized for a Real-space Cutoff    1.51 Angstroem

   l    n(q)    QCUT    max X(q) W(low)/X(q) W(high)/X(q)  e(spline)
   2      8    10.129    60.898    0.46E-03    0.46E-03    0.14E-06
   2      8    10.129    58.894    0.47E-03    0.47E-03    0.14E-06
   0      9    10.129   109.617    0.16E-03    0.11E-03    0.54E-07
   0      9    10.129    75.026    0.15E-03    0.11E-03    0.52E-07
   1      9    10.129    16.344    0.96E-04    0.15E-03    0.14E-06
   1      9    10.129    10.160    0.81E-04    0.12E-03    0.11E-06
 Optimization of the real space projectors (new method)

[...]

   l    n(q)    QCUT    max X(q) W(low)/X(q) W(high)/X(q)  e(spline)
   0      8    10.150    20.381    0.22E-03    0.32E-03    0.29E-06
   0      8    10.150    15.268    0.23E-03    0.35E-03    0.30E-06
   1      8    10.150     5.964    0.46E-03    0.53E-03    0.21E-06
   1      8    10.150     5.382    0.38E-03    0.45E-03    0.19E-06
 Optimization of the real space projectors (new method)

 maximal supplied QI-value         = 14.36
 optimisation between [QCUT,QGAM] = [ 10.20, 20.39] = [ 29.12,116.47] Ry
 Optimized for a Real-space Cutoff    1.51 Angstroem

   l    n(q)    QCUT    max X(q) W(low)/X(q) W(high)/X(q)  e(spline)
   2      8    10.197    59.108    0.26E-03    0.14E-03    0.96E-07
   2      8    10.197    58.101    0.27E-03    0.14E-03    0.98E-07
   0      9    10.197   102.235    0.54E-04    0.60E-05    0.72E-07
   0      9    10.197    58.388    0.52E-04    0.60E-05    0.68E-07
   1      9    10.197    22.191    0.18E-03    0.25E-03    0.79E-07
   1      9    10.197    15.590    0.15E-03    0.21E-03    0.69E-07
  PAW_PBE Au 04Oct2007                  :
  PAW_PBE O 08Apr2002                   :
  PAW_PBE Pd 04Jan2005                  :

 POSCAR: Au  O Pd
  positions in direct lattice
  velocities in cartesian coordinates
 exchange correlation table for  LEXCH =        8
   RHO(1)=    0.500       N(1)  =     2000
   RHO(2)=  100.500       N(2)  =     4000

 VTST: version 3.2, (02/03/18)

 CHAIN: initializing optimizer

 OPT: Using VASP Conjugate-Gradient optimizer
 CHAIN: Read ICHAIN            0

 POSCAR: Au  O Pd
  positions in direct lattice
  velocities in cartesian coordinates

 ion  position               nearest neighbor table
   1  0.083  0.083  0.382-   2 2.75   6 2.75  43 2.75  47 2.75  11 2.75  15 2.75  42 2.95  16 2.95
                             3 2.99
   2  0.333  0.833  0.382-   1 2.75  14 2.75  15 2.75  21 2.75  13 2.75  43 2.75  33 2.92  42 2.93
                            37 2.94
   3  0.912  0.171  0.478-  48 2.70  53 2.73  44 2.73  12 2.77  52 2.81  42 2.81  16 2.82  47 2.95
                             4 2.96  11 2.97   1 2.99   8 3.54
   4  0.014  0.994  0.570-  32 2.06  54 2.65  35 2.67  10 2.78  52 2.81  40 2.82  42 2.87  12 2.96
                             3 2.96   8 3.02
   5  0.665  0.914  0.484-  33 2.71  36 2.72  50 2.74   9 2.78  12 2.79  10 2.79  44 2.80  20 2.95
                            13 3.08   7 3.11  24 3.12
   6  0.083  0.333  0.382-   1 2.75  15 2.75  46 2.75  49 2.75  47 2.75  18 2.75  53 2.84  16 2.95
                            56 3.03
   7  0.833  0.833  0.382-  11 2.75  24 2.75  46 2.75  49 2.75  13 2.75  43 2.75   9 2.91  12 2.96
                             5 3.11
   8  0.775  0.278  0.602-  32 2.03  31 2.06  52 2.57  51 2.66  38 2.83   4 3.02  34 3.23  10 3.27
                            48 3.50   3 3.54
   9  0.917  0.663  0.474-  53 2.72  50 2.72  56 2.77  22 2.78   5 2.78  12 2.79  45 2.80  49 2.87
                            46 2.88   7 2.91  40 2.95
  10  0.758  0.001  0.568-  29 2.21  32 2.48  40 2.73   4 2.78   5 2.79  12 2.81  34 2.83  44 2.88
                            20 2.95  39 3.04   8 3.27
  11  0.833  0.083  0.382-   7 2.75  43 2.75  47 2.75  55 2.75  24 2.75   1 2.75  44 2.94  12 2.96
                             3 2.97
  12  0.917  0.917  0.477-  42 2.75  44 2.76   3 2.77  22 2.78   5 2.79   9 2.79  10 2.81  40 2.92
                            43 2.96   7 2.96  11 2.96   4 2.96
  13  0.583  0.833  0.382-  14 2.75  15 2.75  24 2.75  49 2.75   2 2.75   7 2.75  50 2.84  33 2.91
                             5 3.08
  14  0.583  0.583  0.382-   2 2.75  13 2.75  47 2.75  55 2.75  49 2.75  21 2.75  50 2.84  37 2.89
                            48 3.01
  15  0.333  0.083  0.382-   2 2.75   6 2.75  13 2.75  18 2.75   1 2.75  24 2.75  16 2.91  33 2.93
                            36 3.20
  16  0.171  0.165  0.476-  56 2.73  33 2.74  36 2.76  42 2.77  53 2.79   3 2.82  52 2.82  35 2.84
                            15 2.91   6 2.95   1 2.95  19 3.06
  17  0.423  0.411  0.482-  44 2.68  48 2.71  36 2.74  56 2.77  37 2.77  22 2.79  23 2.93  34 3.00
                            38 3.04  55 3.04  18 3.08  21 3.10
  18  0.333  0.333  0.382-  15 2.75  21 2.75  24 2.75  46 2.75   6 2.75  55 2.75  56 3.00  17 3.08
                            36 3.20
  19  0.248  0.256  0.576-  26 2.21  23 2.66  52 2.74  34 2.75  45 2.78  20 2.82  36 2.85  35 2.85
                            56 2.93  16 3.06
  20  0.496  0.992  0.578-  29 2.12  28 2.18  35 2.65  41 2.73  19 2.82  36 2.88  34 2.88  10 2.95
                             5 2.95  39 3.03  33 3.06
  21  0.333  0.583  0.382-   2 2.75  18 2.75  43 2.75  55 2.75  46 2.75  14 2.75  22 2.89  37 2.94
                            17 3.10
  22  0.169  0.663  0.475-  56 2.74  42 2.77   9 2.78  12 2.78  37 2.79  17 2.79  54 2.80  21 2.89
                            46 2.90  43 2.92  40 2.97  23 3.03
  23  0.245  0.499  0.574-  27 2.17  19 2.66  40 2.72  45 2.72  34 2.77  54 2.84  56 2.88  17 2.93
                            38 2.96  22 3.03
  24  0.583  0.083  0.382-   7 2.75  13 2.75  18 2.75  55 2.75  11 2.75  15 2.75  44 2.94   5 3.12
                            36 3.17
  25  0.936  0.752  0.638-  39 1.90  40 1.93
  26  0.154  0.146  0.616-  35 1.99  52 2.02  19 2.21
  27  0.325  0.613  0.616-  54 1.95  38 2.02  23 2.17
  28  0.566  0.802  0.622-  39 1.97  41 1.98  20 2.18
  29  0.588  0.080  0.625-  34 2.00  20 2.12  10 2.21
  30  0.843  0.558  0.616-  39 1.98  45 2.00  51 2.01
  31  0.572  0.347  0.625-  34 1.98  38 1.99   8 2.06
  32  0.874  0.078  0.630-   8 2.03   4 2.06  10 2.48
  33  0.419  0.915  0.475-   5 2.71  16 2.74  37 2.75  50 2.75  42 2.76  41 2.76  36 2.77  35 2.81
                            13 2.91   2 2.92  15 2.93  20 3.06
  34  0.500  0.252  0.581-  31 1.98  29 2.00  19 2.75  23 2.77  10 2.83  38 2.87  20 2.88  36 2.92
                            17 3.00  44 3.17   8 3.23
  35  0.257  0.994  0.565-  26 1.99  20 2.65   4 2.67  54 2.69  41 2.77  33 2.81  42 2.82  16 2.84
                            52 2.85  19 2.85
  36  0.421  0.164  0.487-   5 2.72  44 2.73  17 2.74  16 2.76  56 2.76  33 2.77  19 2.85  20 2.88
                            34 2.92  24 3.17  15 3.20  18 3.20
  37  0.422  0.663  0.476-  48 2.70  41 2.71  50 2.72  33 2.75  54 2.77  17 2.77  42 2.79  22 2.79
                            14 2.89  21 2.94   2 2.94  38 3.06
  38  0.509  0.508  0.578-  31 1.99  27 2.02  41 2.61  51 2.72  54 2.79   8 2.83  34 2.87  23 2.96
                            48 2.98  17 3.04  37 3.06
  39  0.761  0.762  0.627-  25 1.90  28 1.97  30 1.98  40 2.95  20 3.03  10 3.04  45 3.18  51 3.37
                            41 3.40
  40  0.999  0.746  0.569-  25 1.93  45 2.66  23 2.72  10 2.73   4 2.82  54 2.83  12 2.92  39 2.95
                             9 2.95  22 2.97
  41  0.508  0.742  0.560-  28 1.98  38 2.61  51 2.64  37 2.71  20 2.73  33 2.76  54 2.76  35 2.77
                            50 2.78  39 3.40
  42  0.168  0.915  0.476-  54 2.72  12 2.75  33 2.76  22 2.77  16 2.77  37 2.79   3 2.81  35 2.82
                             4 2.87   2 2.93  43 2.94   1 2.95
  43  0.083  0.833  0.382-   1 2.75  11 2.75  21 2.75  46 2.75   7 2.75   2 2.75  22 2.92  42 2.94
                            12 2.96
  44  0.666  0.167  0.476-  17 2.68  36 2.73   3 2.73  48 2.75  12 2.76   5 2.80  10 2.88  55 2.94
                            24 2.94  11 2.94  34 3.17
  45  0.995  0.506  0.564-  30 2.00  40 2.66  51 2.67  23 2.72  52 2.72  56 2.77  19 2.78   9 2.80
                            53 2.91  39 3.18
  46  0.083  0.583  0.382-   6 2.75   7 2.75  18 2.75  43 2.75  21 2.75  49 2.75   9 2.88  22 2.90
                            56 3.04
  47  0.833  0.333  0.382-   1 2.75  11 2.75  14 2.75  49 2.75   6 2.75  55 2.75  53 2.83   3 2.95
                            48 3.01
  48  0.667  0.417  0.480-  51 2.67  37 2.70   3 2.70  17 2.71  53 2.75  50 2.75  44 2.75  38 2.98
                            14 3.01  47 3.01  55 3.02   8 3.50
  49  0.833  0.583  0.382-   6 2.75   7 2.75  13 2.75  47 2.75  46 2.75  14 2.75  50 2.82  53 2.84
                             9 2.87
  50  0.669  0.665  0.471-   9 2.72  37 2.72  53 2.73   5 2.74  48 2.75  51 2.75  33 2.75  41 2.78
                            49 2.82  14 2.84  13 2.84
  51  0.752  0.507  0.559-  30 2.01  41 2.64   8 2.66  45 2.67  48 2.67  38 2.72  50 2.75  52 2.76
                            53 2.78  39 3.37
  52  0.001  0.255  0.564-  26 2.02   8 2.57  45 2.72  19 2.74  51 2.76   3 2.81   4 2.81  16 2.82
                            35 2.85  53 2.87
  53  0.916  0.416  0.472-   9 2.72   3 2.73  50 2.73  48 2.75  51 2.78  16 2.79  56 2.79  47 2.83
                             6 2.84  49 2.84  52 2.87  45 2.91
  54  0.252  0.751  0.561-  27 1.95   4 2.65  35 2.69  42 2.72  41 2.76  37 2.77  38 2.79  22 2.80
                            40 2.83  23 2.84
  55  0.583  0.333  0.382-  11 2.75  14 2.75  21 2.75  24 2.75  18 2.75  47 2.75  44 2.94  48 3.02
                            17 3.04
  56  0.171  0.414  0.480-  16 2.73  22 2.74  36 2.76  17 2.77  45 2.77   9 2.77  53 2.79  23 2.88
                            19 2.93  18 3.00   6 3.03  46 3.04

  LATTYP: Found a hexagonal cell.
 ALAT       =    11.0025815153
 C/A-ratio  =     2.3805127059

  Lattice vectors:

 A1 = (   5.5012907576,  -9.5285150994,   0.0000000000)
 A2 = ( -11.0025815153,   0.0000000000,   0.0000000000)
 A3 = (   0.0000000000,   0.0000000000, -26.1917850943)

Analysis of symmetry for initial positions (statically):
 Subroutine PRICEL returns:
 Original cell was already a primitive cell.

 Routine SETGRP: Setting up the symmetry group for a
 hexagonal supercell.

 Subroutine GETGRP returns: Found  1 space group operations
 (whereof  1 operations were pure point group operations)
 out of a pool of 24 trial point group operations.

The static configuration has the point symmetry C_1 .

Analysis of symmetry for dynamics (positions and initial velocities):
 Subroutine PRICEL returns:
 Original cell was already a primitive cell.

[...]

The dynamic configuration has the point symmetry C_1 .

[...]
      7     -19.2997      2.00000
      8     -19.2113      2.00000
      9      -9.0277      2.00000
     10      -8.6531      2.00000
     11      -8.3317      2.00000
     12      -8.1807      2.00000
     13      -8.0108      2.00000
     14      -7.9232      2.00000
     15      -7.9047      2.00000
     16      -7.8188      2.00000
     17      -7.7247      2.00000
     18      -7.6875      2.00000
     19      -7.6245      2.00000
     20      -7.5686      2.00000
     21      -7.4983      2.00000
     22      -7.4650      2.00000
     23      -7.4303      2.00000
     24      -7.3855      2.00000
     25      -7.3473      2.00000
     26      -7.3329      2.00000
     27      -7.3011      2.00000
     28      -7.2619      2.00000
     29      -7.2323      2.00000
     30      -7.2004      2.00000
     31      -7.1738      2.00000
     32      -7.1371      2.00000
     33      -7.1294      2.00000
     34      -7.0852      2.00000
     35      -7.0475      2.00000
     36      -7.0352      2.00000
     37      -7.0034      2.00000
     38      -6.9712      2.00000
     39      -6.9574      2.00000
     40      -6.9389      2.00000
     41      -6.9151      2.00000
     42      -6.8689      2.00000
     43      -6.8484      2.00000
     44      -6.8064      2.00000
     45      -6.7997      2.00000
     46      -6.7776      2.00000
     47      -6.7373      2.00000
     48      -6.7037      2.00000
     49      -6.6724      2.00000
     50      -6.6439      2.00000
     51      -6.6306      2.00000
     52      -6.6125      2.00000
     53      -6.5655      2.00000
     54      -6.5490      2.00000
     55      -6.5411      2.00000
     56      -6.5151      2.00000
     57      -6.4857      2.00000
     58      -6.4655      2.00000
     59      -6.4375      2.00000
     60      -6.4208      2.00000
[...]
    322       3.9425      0.00000
    323       4.1428      0.00000
    324       4.2091      0.00000
    325       4.3208      0.00000
    326       4.3649      0.00000
    327       4.4833      0.00000
    328       4.5037      0.00000
    329       4.6725      0.00000
    330       4.7422      0.00000
    331       4.8240      0.00000
    332       4.8643      0.00000
    333       4.9107      0.00000
    334       4.9535      0.00000
    335       5.0521      0.00000
    336       5.0714      0.00000

 soft charge-density along one line, spin component           1
         0         1         2         3         4         5         6         7         8         9
 total charge-density along one line

------------------------ aborting loop because EDIFF is reached ----------------------------------------

 VOLUME and BASIS-vectors are now :
  energy-cutoff  :      400.00
  volume of cell :     2745.90
      direct lattice vectors                 reciprocal lattice vectors
    11.002581515  0.000000000  0.000000000     0.090887761 -0.052474073  0.000000000
     5.501290758  9.528515099  0.000000000     0.000000000  0.104948147  0.000000000
     0.000000000  0.000000000 26.191785094     0.000000000  0.000000000  0.038179910

  length of vectors
    11.002581515 11.002581515 26.191785094     0.104948147  0.104948147  0.038179910

 FORCES acting on ions
    electron-ion (+dipol)            ewald-force                    non-local-force                 convergence-correction
   0.210E+02 -.181E+01 0.249E+04   -.215E+02 0.113E+01 -.249E+04   0.252E+00 0.557E+00 0.627E-01   0.698E-03 -.139E-02 0.156E-02
   0.127E+02 0.538E+01 0.249E+04   -.134E+02 -.518E+01 -.249E+04   0.417E+00 -.205E+00 -.437E+00   -.148E-03 0.471E-03 0.206E-02
   0.512E+02 -.162E+02 0.244E+03   -.516E+02 0.176E+02 -.244E+03   0.407E+00 -.146E+01 -.135E+00   0.351E-02 -.149E-02 -.242E-02
   -.730E+02 0.417E+02 -.192E+04   0.741E+02 -.432E+02 0.192E+04   -.112E+01 0.146E+01 0.341E+00   0.711E-02 -.279E-02 -.321E-02
   0.769E+01 0.273E+02 0.123E+03   -.804E+01 -.267E+02 -.122E+03   0.344E+00 -.541E+00 -.857E+00   -.121E-02 -.134E-02 -.222E-03
   -.449E+01 -.226E+02 0.250E+04   0.399E+01 0.239E+02 -.250E+04   0.426E+00 -.793E+00 -.354E+00   0.407E-03 -.784E-03 0.863E-03
   -.763E+00 0.125E+01 0.249E+04   0.132E+01 -.213E+01 -.249E+04   -.427E+00 0.671E+00 0.621E+00   0.420E-03 0.379E-04 0.633E-03
   -.103E+03 -.597E+02 -.245E+04   0.105E+03 0.598E+02 0.245E+04   -.186E+01 -.121E+00 0.410E+00   0.726E-03 0.165E-03 0.198E-02
   0.314E+02 -.241E+02 0.316E+03   -.321E+02 0.230E+02 -.315E+03   0.692E+00 0.111E+01 -.142E+00   -.220E-03 -.943E-03 0.117E-02
   -.113E+02 0.849E+01 -.169E+04   0.114E+02 -.988E+01 0.169E+04   -.367E-01 0.138E+01 0.255E+01   -.245E-02 0.201E-02 -.175E-02
   0.743E+01 -.235E+02 0.248E+04   -.744E+01 0.240E+02 -.248E+04   0.372E-01 -.240E+00 0.735E-01   0.107E-02 -.173E-02 0.121E-03
   0.127E+02 -.164E+02 0.300E+03   -.127E+02 0.167E+02 -.299E+03   -.769E-01 -.294E+00 -.755E+00   0.249E-02 -.365E-02 -.658E-03
   -.174E+02 -.578E+01 0.248E+04   0.175E+02 0.542E+01 -.248E+04   0.929E-01 0.314E+00 -.449E+00   -.105E-02 0.174E-03 0.154E-02
   0.759E+00 0.429E+02 0.249E+04   -.449E+00 -.439E+02 -.249E+04   -.185E+00 0.496E+00 -.287E+00   -.271E-03 0.192E-02 0.148E-02
   -.270E+02 -.126E+02 0.247E+04   0.274E+02 0.123E+02 -.247E+04   -.187E+00 0.347E+00 -.255E+00   -.107E-02 -.119E-02 0.128E-02
   -.153E+02 -.808E+01 0.312E+03   0.158E+02 0.798E+01 -.311E+03   -.477E+00 0.106E+00 -.661E+00   -.219E-03 -.540E-02 0.160E-03
   -.225E+02 0.248E+02 0.164E+03   0.235E+02 -.262E+02 -.163E+03   -.982E+00 0.132E+01 -.410E+00   -.219E-02 0.287E-02 0.201E-03
   -.218E+02 -.796E+00 0.245E+04   0.217E+02 0.109E+01 -.245E+04   0.204E+00 -.185E+00 -.164E-01   -.690E-03 0.400E-03 0.149E-03
   -.357E+02 -.521E+02 -.203E+04   0.377E+02 0.541E+02 0.203E+04   -.199E+01 -.199E+01 0.174E+01   0.396E-02 -.524E-02 0.425E-02
   0.841E+02 -.101E+02 -.197E+04   -.861E+02 0.114E+02 0.196E+04   0.201E+01 -.132E+01 0.157E+01   -.650E-03 0.732E-02 0.882E-02
   0.204E+01 0.276E+02 0.248E+04   -.227E+01 -.275E+02 -.248E+04   0.174E+00 -.212E+00 -.173E+00   -.263E-03 0.153E-02 0.115E-02
   -.224E+01 0.212E+02 0.363E+03   0.209E+01 -.207E+02 -.363E+03   0.153E+00 -.566E+00 0.150E-01   0.159E-02 0.447E-03 0.191E-02
   0.636E+02 0.393E+02 -.198E+04   -.662E+02 -.411E+02 0.198E+04   0.256E+01 0.173E+01 0.112E+01   0.561E-02 -.317E-02 -.346E-02
   -.181E+01 -.215E+02 0.245E+04   0.194E+01 0.224E+02 -.245E+04   -.118E+00 -.695E+00 0.223E+00   -.726E-03 -.124E-02 -.271E-03
   -.156E+03 0.368E+02 -.174E+04   0.170E+03 -.393E+02 0.176E+04   -.146E+02 0.253E+01 -.229E+02   0.203E-02 0.240E-03 -.171E-02
   -.624E+01 0.701E+01 -.170E+04   0.513E+01 -.766E+01 0.173E+04   0.111E+01 0.654E+00 -.270E+02   0.372E-02 -.191E-02 -.273E-03
   0.254E+02 -.602E+02 -.168E+04   -.281E+02 0.621E+02 0.171E+04   0.269E+01 -.185E+01 -.280E+02   0.521E-03 0.228E-03 -.376E-03
   0.129E+03 0.140E+02 -.161E+04   -.138E+03 -.156E+02 0.163E+04   0.992E+01 0.152E+01 -.202E+02   -.275E-03 0.122E-02 -.558E-05
   0.269E+02 -.589E+00 -.169E+04   -.229E+02 -.210E+01 0.172E+04   -.397E+01 0.269E+01 -.271E+02   -.436E-02 0.641E-02 -.249E-02
   0.246E+02 0.108E+03 -.159E+04   -.273E+02 -.120E+03 0.161E+04   0.269E+01 0.119E+02 -.217E+02   -.540E-03 -.753E-03 0.169E-02
   0.282E+02 -.333E+02 -.170E+04   -.342E+02 0.343E+02 0.173E+04   0.601E+01 -.106E+01 -.270E+02   -.597E-02 -.142E-02 -.219E-02
   -.334E+02 0.562E+02 -.169E+04   0.273E+02 -.654E+02 0.171E+04   0.618E+01 0.911E+01 -.238E+02   -.193E-02 0.320E-04 0.130E-02
   -.228E+02 -.828E+01 0.281E+03   0.225E+02 0.787E+01 -.280E+03   0.284E+00 0.412E+00 -.132E+01   -.438E-02 0.171E-03 0.138E-02
   0.703E+02 -.608E+02 -.178E+04   -.698E+02 0.600E+02 0.179E+04   -.528E+00 0.820E+00 -.257E+01   -.696E-02 -.675E-05 0.164E-01
   -.524E+01 0.105E+03 -.169E+04   0.484E+01 -.105E+03 0.169E+04   0.399E+00 -.421E+00 0.258E-02   0.286E-02 0.103E-02 -.303E-02
   -.229E+02 -.830E+01 0.128E+03   0.232E+02 0.833E+01 -.127E+03   -.359E+00 -.152E-01 -.112E+01   -.163E-02 -.234E-02 0.781E-02
   0.387E+01 0.282E+02 0.285E+03   -.292E+01 -.278E+02 -.283E+03   -.955E+00 -.419E+00 -.193E+01   0.828E-03 0.257E-02 0.155E-02
   -.833E+02 -.506E+02 -.181E+04   0.831E+02 0.508E+02 0.181E+04   0.202E+00 -.120E+00 -.125E+01   -.621E-02 -.326E-02 -.867E-02
   0.454E+02 -.482E+02 -.255E+04   -.448E+02 0.440E+02 0.255E+04   -.612E+00 0.420E+01 0.799E+00   0.154E-02 0.672E-02 0.228E-02
   -.493E+02 0.101E+02 -.155E+04   0.487E+02 -.108E+02 0.156E+04   0.565E+00 0.692E+00 -.304E+01   0.275E-02 -.994E-03 0.382E-02
   0.383E+02 0.165E+02 -.152E+04   -.382E+02 -.169E+02 0.152E+04   -.564E-01 0.449E+00 0.196E+00   -.651E-02 0.266E-02 -.115E-02
   0.339E+00 -.795E+01 0.281E+03   -.528E-01 0.714E+01 -.279E+03   -.282E+00 0.807E+00 -.176E+01   -.707E-03 -.130E-03 0.491E-02
   0.539E+01 0.336E+01 0.228E+04   -.541E+01 -.333E+01 -.228E+04   -.371E-01 0.250E-01 -.135E+01   0.732E-03 0.159E-03 0.118E-02
   -.760E+01 -.379E+02 0.238E+03   0.738E+01 0.384E+02 -.239E+03   0.222E+00 -.496E+00 0.394E+00   -.947E-03 -.615E-03 0.626E-03
   -.620E+02 0.305E+02 -.155E+04   0.615E+02 -.308E+02 0.155E+04   0.455E+00 0.269E+00 0.233E-01   0.468E-02 0.507E-02 -.650E-03
   -.415E+00 0.648E+01 0.228E+04   0.426E+00 -.659E+01 -.228E+04   -.271E-01 0.342E-02 -.145E+01   0.563E-03 0.553E-03 0.611E-03
   0.290E+02 -.868E+01 0.227E+04   -.290E+02 0.929E+01 -.227E+04   -.176E+00 -.464E+00 -.169E+01   0.760E-03 -.327E-03 0.640E-03
   0.337E+02 0.495E+02 0.189E+03   -.333E+02 -.490E+02 -.188E+03   -.480E+00 -.518E+00 -.836E+00   -.810E-03 0.122E-02 0.233E-02
   -.274E+01 0.104E+02 0.229E+04   0.260E+01 -.108E+02 -.229E+04   0.152E+00 0.236E+00 -.215E+01   -.850E-04 0.679E-03 0.764E-03
   -.274E+02 -.162E+02 0.319E+03   0.272E+02 0.159E+02 -.319E+03   0.210E+00 0.352E+00 -.351E+00   -.339E-02 -.330E-03 -.661E-03
   0.468E+02 -.130E+02 -.147E+04   -.475E+02 0.119E+02 0.147E+04   0.737E+00 0.108E+01 -.454E+00   -.227E-02 0.360E-02 -.234E-02
   0.357E+02 -.550E+02 -.161E+04   -.365E+02 0.546E+02 0.161E+04   0.765E+00 0.389E+00 -.117E+01   0.218E-02 -.233E-02 -.183E-03
   0.541E+01 -.572E+00 0.371E+03   -.604E+01 0.767E+00 -.371E+03   0.626E+00 -.196E+00 -.267E+00   0.709E-03 -.350E-03 0.110E-02
   -.165E+02 -.852E+02 -.159E+04   0.169E+02 0.849E+02 0.159E+04   -.410E+00 0.326E+00 -.361E+00   0.224E-02 0.410E-02 -.362E-02
   -.567E+01 -.116E+01 0.224E+04   0.608E+01 0.976E+00 -.224E+04   -.307E+00 0.213E+00 -.147E+01   -.463E-03 0.635E-03 0.173E-03
   -.163E+02 0.151E+02 0.259E+03   0.161E+02 -.148E+02 -.258E+03   0.248E+00 -.269E+00 -.125E+01   -.785E-03 -.164E-02 0.101E-02
   -.110E+02 -.337E+02 0.218E+03   0.213E-13 0.671E-12 -.335E-11   0.110E+02 0.337E+02 -.218E+03   -.566E-02 0.787E-02 0.395E-01

 POSITION                                       TOTAL-FORCE (eV/Angst)
      1.37532      0.79404     10.00000        -0.277791     -0.124566     -0.283249
      8.25194      7.94043     10.00000        -0.235896     -0.000031      0.008601
     10.96849      1.64320     12.49075        -0.000506     -0.003544      0.006414
      5.61764      9.46486     14.94291        -0.001516     -0.000208     -0.007282
     12.34159      8.71562     12.63846        -0.000091      0.003734      0.001342
      2.75065      3.17617     10.00000        -0.074140      0.474953     -0.122737
     13.75323      7.94043     10.00000         0.131267     -0.208474     -0.360579
     10.02081      2.63701     15.76891         0.002310      0.002503      0.009150
     13.72930      6.32713     12.39372         0.002651      0.001307      0.006293
      8.30303     -0.01865     14.84905        -0.001436      0.000093      0.002093
      9.62726      0.79404     10.00000         0.033515      0.189057     -0.187953
     15.13339      8.74874     12.47423         0.000000     -0.001364      0.001898
     11.00258      7.94043     10.00000         0.162504     -0.049477     -0.136159
      9.62726      5.55830     10.00000         0.123705     -0.487159     -0.058027
      4.12597      0.79404     10.00000         0.228313      0.031744     -0.036449
      2.78514      1.58805     12.45537        -0.001035      0.002835      0.003977
      6.93107      3.93711     12.62864         0.001049     -0.000670     -0.002777
      5.50129      3.17617     10.00000         0.071659      0.106727      0.147411
      4.12152      2.44605     14.98440         0.003574     -0.000342      0.001697
     10.91598      9.50136     15.10468        -0.003176     -0.003926     -0.010270
      6.87661      5.55830     10.00000        -0.051987     -0.115060     -0.189552
      5.51873      6.34759     12.39839        -0.000170      0.001257      0.000907
      5.43111      4.75684     14.96159        -0.006524      0.003026     -0.000545
      6.87661      0.79404     10.00000         0.006425      0.212401      0.063455
     14.54480      7.05135     16.67782        -0.001524     -0.000298      0.002811
      2.51267      1.41455     16.12010         0.006478      0.007503     -0.004765
      6.90113      5.83455     16.11893         0.004986     -0.000947      0.006190
     10.78103      7.66381     16.23396         0.002559     -0.007370     -0.005330
      6.87234      0.81658     16.33976         0.000497      0.007377     -0.003028
     12.34093      5.25451     16.11981        -0.004526      0.006632      0.000249
      8.18953      3.32768     16.40205        -0.002149      0.001408     -0.002459
      9.88305      0.70194     16.42093         0.000662     -0.003362      0.010064
      9.63484      8.73028     12.45847         0.002530      0.001022     -0.003095
      6.87603      2.43974     15.20794        -0.000652      0.002261     -0.019144
      8.29073      9.47005     14.80934        -0.002321      0.001449      0.003479
      5.54009      1.58031     12.68398        -0.007318      0.004901     -0.007712
      8.29969      6.34120     12.46014        -0.004412     -0.004387      0.003091
      8.38739      4.87561     15.16788         0.004193      0.003847      0.002327
     12.68249      7.20319     16.37279        -0.009774     -0.003000      0.002434
      4.11031      7.11375     14.83769        -0.005592     -0.001361     -0.002807
      9.69903      7.08587     14.67389         0.003819     -0.003182     -0.010303
      6.88363      8.73856     12.48157         0.003554     -0.004200     -0.005482
      5.50129      7.94043     10.00000        -0.054771      0.052205      0.188492
      8.24539      1.60722     12.46603        -0.001698     -0.001904      0.001708
     13.70811      4.80889     14.71331        -0.003138     -0.005878      0.001128
      4.12597      5.55830     10.00000        -0.015614     -0.102213      0.183857
     11.00258      3.17617     10.00000        -0.144826      0.136889      0.313377
      9.62264      3.99285     12.55370         0.003156     -0.001637     -0.007370
     12.37790      5.55830     10.00000         0.010850     -0.143466     -0.037221
     11.01342      6.34462     12.35491         0.002859      0.003900      0.002398
     11.03750      4.80836     14.65508        -0.005964     -0.005533     -0.000106
      1.38713      2.40355     14.78693         0.001743     -0.002858     -0.001695
     12.35661      3.97146     12.34054         0.002013     -0.000501     -0.003415
      6.91971      7.16637     14.69137        -0.003699     -0.001152      0.003649
      8.25194      3.17617     10.00000         0.102966      0.025693      0.525109
      4.15709      3.96521     12.50997         0.002412      0.003347      0.005911
    total drift:                                0.010573      0.013981     -0.010429

  FREE ENERGIE OF THE ION-ELECTRON SYSTEM (eV)
  free  energy   TOTEN  =      -233.02400287 eV

  energy  without entropy=     -232.85550513  energy(sigma->0) =     -232.93975400

 d Force = 0.2277714E-03[ 0.150E-03, 0.305E-03]  d Energy = 0.2332416E-03-0.547E-05
 d Force =-0.4222117E+01[-0.422E+01,-0.423E+01]  d Ewald  =-0.4222116E+01-0.356E-06

 stress matrix after NEB project (eV)
      0.00000      0.00000      0.00000
      0.00000      0.00000      0.00000
      0.00000      0.00000      0.00000
  FORCES: max atom, RMS     0.019288    0.006487
  FORCE total and by dimension    0.048546    0.019144
  Stress total and by dimension    0.000000    0.000000
 Conjugate gradient step on ions:
 trial-energy change:   -0.000233  1 .order   -0.000228   -0.000305   -0.000150
  (g-gl).g = 0.158E-03      g.g   = 0.213E-03  gl.gl    = 0.467E-03
 g(Force)  = 0.213E-03   g(Stress)= 0.000E+00 ortho     = 0.338E-04
 gamma     =   0.33882
 trial     =   1.36006
 opt step  =   2.32468  (harmonic =   2.67279) maximal distance =0.00315301
 next E    =  -233.024058   (d E  =  -0.00029)

 reached required accuracy - stopping structural energy minimisation