 vasp.5.4.1 24Jun15 (build Mar 14 2019 10:18:33) complex

 executed on INTEL-19.0.2+OPENMPI date 2022.07.15  17:49:11

 INCAR:
 POTCAR:    PAW_PBE Au 04Oct2007
 POTCAR:    PAW_PBE Pd 04Jan2005
 POTCAR:    PAW_PBE Au 04Oct2007

 POTCAR:    PAW_PBE Pd 04Jan2005

 Optimization of the real space projectors (new method)

 maximal supplied QI-value         = 15.12
 optimisation between [QCUT,QGAM] = [ 10.13, 20.41] = [ 28.73,116.64] Ry
 Optimized for a Real-space Cutoff    1.51 Angstroem

   l    n(q)    QCUT    max X(q) W(low)/X(q) W(high)/X(q)  e(spline)
   2      8    10.129    60.898    0.46E-03    0.46E-03    0.14E-06
   2      8    10.129    58.894    0.47E-03    0.47E-03    0.14E-06
   0      9    10.129   109.617    0.16E-03    0.11E-03    0.54E-07
   0      9    10.129    75.026    0.15E-03    0.11E-03    0.52E-07
   1      9    10.129    16.344    0.96E-04    0.15E-03    0.14E-06
   1      9    10.129    10.160    0.81E-04    0.12E-03    0.11E-06
 Optimization of the real space projectors (new method)

 maximal supplied QI-value         = 14.36
 optimisation between [QCUT,QGAM] = [ 10.20, 20.39] = [ 29.12,116.47] Ry
 Optimized for a Real-space Cutoff    1.51 Angstroem

   l    n(q)    QCUT    max X(q) W(low)/X(q) W(high)/X(q)  e(spline)
   2      8    10.197    59.108    0.26E-03    0.14E-03    0.96E-07
   2      8    10.197    58.101    0.27E-03    0.14E-03    0.98E-07
   0      9    10.197   102.235    0.54E-04    0.60E-05    0.72E-07
   0      9    10.197    58.388    0.52E-04    0.60E-05    0.68E-07
   1      9    10.197    22.191    0.18E-03    0.25E-03    0.79E-07
   1      9    10.197    15.590    0.15E-03    0.21E-03    0.69E-07
  PAW_PBE Au 04Oct2007                  :
  PAW_PBE Pd 04Jan2005                  :

 POSCAR: Au Pd
  positions in cartesian coordinates
 exchange correlation table for  LEXCH =        8
   RHO(1)=    0.500       N(1)  =     2000
   RHO(2)=  100.500       N(2)  =     4000

 VTST: version 3.2, (02/03/18)

 CHAIN: initializing optimizer

 OPT: Using VASP Conjugate-Gradient optimizer
 CHAIN: Read ICHAIN            0

 POSCAR: Au Pd
  positions in cartesian coordinates

 ion  position               nearest neighbor table
   1  0.750  0.750  0.592-  37 2.75  44 2.75  31 2.75  35 2.75  24 2.75  26 2.75  14 2.75  27 2.75
                            20 2.75
   2  0.500  0.500  0.592-  47 2.75  30 2.75  27 2.75  11 2.75  25 2.75  48 2.75   8 2.75  31 2.75
                            33 2.75
   3  0.583  0.833  0.408-  37 2.75  22 2.75  36 2.75  21 2.75  42 2.75  17 2.75   7 2.75  20 2.75
                            29 2.75
   4  0.417  0.167  0.500-  42 2.75  35 2.75  39 2.75  37 2.75  33 2.75  40 2.75  29 2.75  12 2.75
                             6 2.75  13 2.75  11 2.75  36 2.75
   5  0.833  0.083  0.408-  15 2.75  17 2.75  28 2.75  34 2.75  43 2.75  36 2.75  32 2.75  23 2.75
                             6 2.75
   6  0.667  0.167  0.500-  36 2.75  26 2.75  11 2.75  30 2.75  33 2.75  23 2.75  37 2.75   4 2.75
                            15 2.75  34 2.75   5 2.75  25 2.75
   7  0.333  0.833  0.408-  29 2.75  21 2.75  10 2.75  32 2.75  42 2.75   3 2.75  43 2.75  47 2.75
                            38 2.75
   8  0.250  0.500  0.592-   9 2.75  33 2.75  14 2.75  11 2.75  39 2.75  48 2.75  24 2.75   2 2.75
                            40 2.75
   9  0.167  0.667  0.500-  45 2.75   8 2.75  14 2.75  33 2.75  38 2.75  40 2.75  23 2.75  44 2.75
                            47 2.75  43 2.75  10 2.75  48 2.75
  10  0.333  0.583  0.408-  47 2.75  13 2.75  34 2.75  43 2.75   7 2.75  45 2.75  21 2.75  33 2.75
                             9 2.75
  11  0.500  0.250  0.592-  33 2.75   6 2.75   8 2.75  26 2.75   2 2.75  35 2.75  25 2.75  39 2.75
                             4 2.75
  12  0.167  0.167  0.500-  32 2.75  41 2.75  19 2.75  18 2.75  38 2.75  40 2.75  29 2.75  15 2.75
                             4 2.75  46 2.75  42 2.75  39 2.75
  13  0.333  0.333  0.408-  33 2.75  10 2.75  36 2.75  42 2.75  45 2.75  34 2.75  46 2.75   4 2.75
                            40 2.75
  14  0.000  0.750  0.592-  23 2.75   9 2.75  16 2.75   8 2.75  24 2.75  26 2.75   1 2.75  48 2.75
                            44 2.75
  15  0.917  0.167  0.500-   5 2.75  16 2.75  25 2.75  23 2.75  18 2.75  30 2.75  38 2.75   6 2.75
                            12 2.75  28 2.75  32 2.75  19 2.75
  16  0.000  0.000  0.592-  15 2.75  38 2.75  19 2.75  25 2.75  14 2.75  48 2.75  41 2.75  26 2.75
                            23 2.75
  17  0.833  0.833  0.408-  23 2.75  22 2.75   5 2.75  36 2.75  45 2.75  43 2.75   3 2.75  44 2.75
                            37 2.75
  18  0.917  0.417  0.500-  28 2.75  19 2.75  31 2.75  20 2.75  15 2.75  12 2.75  44 2.75  40 2.75
                            30 2.75  22 2.75  24 2.75  46 2.75
  19  0.000  0.250  0.592-  18 2.75  12 2.75  16 2.75  24 2.75  31 2.75  41 2.75  39 2.75  25 2.75
                            15 2.75
  20  0.667  0.667  0.500-  21 2.75  31 2.75  27 2.75  29 2.75  30 2.75  18 2.75  37 2.75  44 2.75
                            47 2.75   3 2.75  22 2.75   1 2.75
  21  0.583  0.583  0.408-  20 2.75   7 2.75   3 2.75  28 2.75  34 2.75  10 2.75  22 2.75  30 2.75
                            47 2.75
  22  0.833  0.583  0.408-  44 2.75  17 2.75  28 2.75   3 2.75  46 2.75  45 2.75  21 2.75  18 2.75
                            20 2.75
  23  0.917  0.917  0.500-  17 2.75  14 2.75  26 2.75  15 2.75   9 2.75   6 2.75  44 2.75  38 2.75
                            37 2.75   5 2.75  43 2.75  16 2.75
  24  0.000  0.500  0.592-  44 2.75  40 2.75  19 2.75  39 2.75   1 2.75  14 2.75  31 2.75   8 2.75
                            18 2.75
  25  0.750  0.250  0.592-  30 2.75  15 2.75  16 2.75  26 2.75   2 2.75  31 2.75  19 2.75  11 2.75
                             6 2.75
  26  0.750  0.000  0.592-   6 2.75  23 2.75  11 2.75  14 2.75   1 2.75  25 2.75  16 2.75  35 2.75
                            37 2.75
  27  0.500  0.750  0.592-  29 2.75  20 2.75   2 2.75  31 2.75  35 2.75  41 2.75   1 2.75  48 2.75
                            47 2.75
  28  0.833  0.333  0.408-  18 2.75   5 2.75  21 2.75  22 2.75  32 2.75  34 2.75  46 2.75  15 2.75
                            30 2.75
  29  0.417  0.917  0.500-   7 2.75  27 2.75  41 2.75  20 2.75   4 2.75  12 2.75  47 2.75  37 2.75
                            38 2.75  42 2.75  35 2.75   3 2.75
  30  0.667  0.417  0.500-  34 2.75  25 2.75   2 2.75  20 2.75   6 2.75  15 2.75  47 2.75  18 2.75
                            33 2.75  21 2.75  31 2.75  28 2.75
  31  0.750  0.500  0.592-  20 2.75  18 2.75  19 2.75   1 2.75  25 2.75  27 2.75   2 2.75  24 2.75
                            30 2.75
  32  0.083  0.083  0.408-  12 2.75   7 2.75  28 2.75  43 2.75  46 2.75   5 2.75  42 2.75  38 2.75
                            15 2.75
  33  0.417  0.417  0.500-  13 2.75  11 2.75   8 2.75   9 2.75   6 2.75   4 2.75  47 2.75  40 2.75
                            30 2.75  10 2.75   2 2.75  34 2.75
  34  0.583  0.333  0.408-  30 2.75  10 2.75  21 2.75   5 2.75  36 2.75  13 2.75  28 2.75   6 2.75
                            33 2.75
  35  0.500  0.000  0.592-   4 2.75  37 2.75  11 2.75  27 2.75   1 2.75  39 2.75  26 2.75  41 2.75
                            29 2.75
  36  0.583  0.083  0.408-   6 2.75   3 2.75  13 2.75  17 2.75  34 2.75   5 2.75  42 2.75  37 2.75
                             4 2.75
  37  0.667  0.917  0.500-   3 2.75   1 2.75  35 2.75   6 2.75  20 2.75   4 2.75  44 2.75  23 2.75
                            29 2.75  36 2.75  17 2.75  26 2.75
  38  0.167  0.917  0.500-  43 2.75  48 2.75  16 2.75   9 2.75  12 2.75  47 2.75  15 2.75  29 2.75
                            23 2.75  32 2.75  41 2.75   7 2.75
  39  0.250  0.250  0.592-  40 2.75   4 2.75  24 2.75  35 2.75   8 2.75  41 2.75  11 2.75  19 2.75
                            12 2.75
  40  0.167  0.417  0.500-  46 2.75  39 2.75  24 2.75   4 2.75   9 2.75  44 2.75  12 2.75  33 2.75
                            18 2.75  45 2.75  13 2.75   8 2.75
  41  0.250  0.000  0.592-  12 2.75  29 2.75  27 2.75  19 2.75  39 2.75  48 2.75  16 2.75  35 2.75
                            38 2.75
  42  0.333  0.083  0.408-   4 2.75   3 2.75   7 2.75  13 2.75  46 2.75  36 2.75  32 2.75  29 2.75
                            12 2.75
  43  0.083  0.833  0.408-  38 2.75  10 2.75  32 2.75   5 2.75  45 2.75  17 2.75   7 2.75   9 2.75
                            23 2.75
  44  0.917  0.667  0.500-  22 2.75  24 2.75   1 2.75  23 2.75  18 2.75  37 2.75  40 2.75  20 2.75
                             9 2.75  17 2.75  14 2.75  45 2.75
  45  0.083  0.583  0.408-   9 2.75  13 2.75  17 2.75  43 2.75  46 2.75  10 2.75  22 2.75  40 2.75
                            44 2.75
  46  0.083  0.333  0.408-  40 2.75  32 2.75  22 2.75  42 2.75  45 2.75  13 2.75  28 2.75  12 2.75
                            18 2.75
  47  0.417  0.667  0.500-  10 2.75   2 2.75  48 2.75  30 2.75  33 2.75  38 2.75  29 2.75  20 2.75
                             9 2.75   7 2.75  27 2.75  21 2.75
  48  0.250  0.750  0.592-  38 2.75  47 2.75  16 2.75   2 2.75  41 2.75   8 2.75  27 2.75  14 2.75
                             9 2.75

  LATTYP: Found a hexagonal cell.
 ALAT       =    11.0025815153
 C/A-ratio  =     2.2260035120

  Lattice vectors:

 A1 = (   5.5012907576,  -9.5285150994,   0.0000000000)
 A2 = ( -11.0025815153,   0.0000000000,   0.0000000000)
 A3 = (   0.0000000000,   0.0000000000, -24.4917850943)

Analysis of symmetry for initial positions (statically):
 Subroutine PRICEL returns:
 Original cell was already a primitive cell.

 Routine SETGRP: Setting up the symmetry group for a
 hexagonal supercell.

 Subroutine GETGRP returns: Found  1 space group operations
 (whereof  1 operations were pure point group operations)
 out of a pool of 24 trial point group operations.

The static configuration has the point symmetry C_1 .

Analysis of symmetry for dynamics (positions and initial velocities):
 Subroutine PRICEL returns:
 Original cell was already a primitive cell.

 Routine SETGRP: Setting up the symmetry group for a
 hexagonal supercell.

 Subroutine GETGRP returns: Found  1 space group operations
 (whereof  1 operations were pure point group operations)
 out of a pool of 24 trial point group operations.

The dynamic configuration has the point symmetry C_1 .

 KPOINTS: Automatic mesh

Automatic generation of k-mesh.
Space group operators:
 irot       det(A)        alpha          n_x          n_y          n_z        tau_x        tau_y        tau_z
    1     1.000000     0.000000     1.000000     0.000000     0.000000     0.000000     0.000000     0.000000

 Subroutine IBZKPT returns following result:

 Found      6 irreducible k-points:

 Following reciprocal coordinates:
            Coordinates               Weight
  0.250000  0.250000  0.000000     16.000000
  0.000000  0.250000  0.000000     16.000000
 -0.250000  0.000000  0.000000     16.000000
 -0.250000  0.250000  0.000000     16.000000
  0.500000 -0.250000  0.000000     16.000000
 -0.250000  0.500000  0.000000     16.000000

 Following cartesian coordinates:
            Coordinates               Weight
  0.022722  0.013119  0.000000     16.000000
  0.000000  0.026237  0.000000     16.000000
[...]
 augmentation part      197.3168083 magnetization

[...]

----------------------------------------- Iteration   24(   2)  ---------------------------------------

 eigenvalue-minimisations  :  2762
 total energy-change (2. order) :-0.4863396E-06  (-0.4490340E-06)
 number of electron     503.9999456 magnetization
 augmentation part      197.3168083 magnetization

 DIPCOR: dipole corrections for dipol
 direction  3 min pos     1,
 dipolmoment           0.000000      0.000000      0.001855 electrons x Angstroem
 Tr[quadrupol]    -10273.952121

 energy correction for charged system         0.000000 eV
 dipol+quadrupol energy correction           -0.000000 eV
 added-field ion interaction         -0.000015 eV  (added to PSCEN)

  free energy =  -0.192517293024E+03  energy without entropy=  -0.192279981472E+03

 average (electrostatic) potential at core
  the test charge radii are     1.2098  1.1199
  (the norm of the test charge is              1.0000)
       1 -73.9310       2 -73.9373       3 -73.9599       4 -74.1676       5 -73.8101
       6 -74.1807       7 -73.9250       8 -73.9969       9 -74.1380      10 -73.9625
      11 -73.8927      12 -74.1576      13 -73.8955      14 -73.9523      15 -74.1810
      16 -73.9124      17 -73.9914      18 -74.1706      19 -73.8751      20 -74.1277
      21 -73.9459      22 -73.9483      23 -74.1701      24 -74.0140      25 -80.8227
      26 -80.8193      27 -80.8672      28 -80.8220      29 -80.9628      30 -80.9284
      31 -80.8531      32 -80.8629      33 -80.8736      34 -80.8268      35 -80.8146
      36 -80.8348      37 -80.9235      38 -80.9690      39 -80.8105      40 -80.8973
      41 -80.8287      42 -80.8440      43 -80.8388      44 -80.8533      45 -80.8605
      46 -80.8406      47 -80.9289      48 -80.8436

 E-fermi :  -1.1073     XC(G=0):  -4.5465     alpha+bet : -4.5211

[...]

 k-point     6 :      -0.2500    0.5000    0.0000
  band No.  band energies     occupation
      1      -8.4721      2.00000
      2      -8.1489      2.00000
      3      -7.8685      2.00000
      4      -7.4347      2.00000
      5      -7.1512      2.00000
      6      -7.0608      2.00000
      7      -6.9554      2.00000
      8      -6.8914      2.00000
      9      -6.8774      2.00000
     10      -6.7863      2.00000
     11      -6.7331      2.00000
     12      -6.6530      2.00000
     13      -6.6231      2.00000
     14      -6.6059      2.00000
     15      -6.5652      2.00000
     16      -6.5254      2.00000
     17      -6.4940      2.00000
     18      -6.4662      2.00000
     19      -6.4481      2.00000
     20      -6.4239      2.00000
     21      -6.4055      2.00000
     22      -6.3591      2.00000
     23      -6.3269      2.00000
     24      -6.2982      2.00000
     25      -6.2559      2.00000
     26      -6.2395      2.00000
     27      -6.1959      2.00000
     28      -6.1762      2.00000
     29      -6.1605      2.00000
     30      -6.1219      2.00000
     31      -6.1055      2.00000
     32      -6.0726      2.00000
     33      -6.0541      2.00000
     34      -6.0331      2.00000
     35      -6.0248      2.00000
     36      -5.9947      2.00000
     37      -5.9850      2.00000
     38      -5.9441      2.00000
     39      -5.9347      2.00000
     40      -5.9205      2.00000
     41      -5.8965      2.00000
     42      -5.8543      2.00000
     43      -5.8230      2.00000
     44      -5.7856      2.00000
     45      -5.7744      2.00000
     46      -5.7565      2.00000
     47      -5.7280      2.00000
     48      -5.6921      2.00000
     49      -5.6761      2.00000
     50      -5.6521      2.00000
     51      -5.6008      2.00000
     52      -5.5747      2.00000
     53      -5.5614      2.00000
     54      -5.5436      2.00000
     55      -5.4856      2.00000
     56      -5.4566      2.00000
     57      -5.4254      2.00000
     58      -5.3891      2.00000
     59      -5.3638      2.00000
     60      -5.3117      2.00000
[...]
    292       4.1965      0.00000
    293       4.4959      0.00000
    294       4.5339      0.00000
    295       4.6134      0.00000
    296       4.6263      0.00000
    297       4.7693      0.00000
    298       4.8040      0.00000
    299       4.8450      0.00000
    300       4.9291      0.00000
    301       4.9745      0.00000
    302       5.0376      0.00000
    303       5.0735      0.00000
    304       5.0849      0.00000
    305       5.2027      0.00000
    306       5.2554      0.00000

 soft charge-density along one line, spin component           1
         0         1         2         3         4         5         6         7         8         9
 total charge-density along one line

------------------------ aborting loop because EDIFF is reached ----------------------------------------

 VOLUME and BASIS-vectors are now :
  energy-cutoff  :      400.00
  volume of cell :     2567.68
      direct lattice vectors                 reciprocal lattice vectors
    11.002581515  0.000000000  0.000000000     0.090887761 -0.052474073  0.000000000
     5.501290758  9.528515099  0.000000000     0.000000000  0.104948147  0.000000000
     0.000000000  0.000000000 24.491785094     0.000000000  0.000000000  0.040830017

  length of vectors
    11.002581515 11.002581515 24.491785094     0.104948147  0.104948147  0.040830017

 FORCES acting on ions
    electron-ion (+dipol)            ewald-force                    non-local-force                 convergence-correction
   0.238E+02 -.632E+01 -.224E+04   -.241E+02 0.702E+01 0.224E+04   0.258E+00 -.701E+00 0.481E+00   0.798E-02 0.246E-02 -.718E-02
   -.138E+02 -.123E+02 -.221E+04   0.147E+02 0.127E+02 0.220E+04   -.937E+00 -.397E+00 0.562E+00   -.720E-02 -.585E-02 -.193E-02
   -.294E+01 -.126E+02 0.227E+04   0.294E+01 0.138E+02 -.227E+04   -.323E-02 -.122E+01 -.469E+00   0.444E-02 0.228E-02 -.334E-02
   -.634E+01 -.950E+01 -.147E+02   0.620E+01 0.915E+01 0.148E+02   0.128E+00 0.356E+00 -.573E-01   -.244E-02 0.415E-02 -.111E-01
   -.751E+01 0.357E+00 0.234E+04   0.776E+01 0.137E+00 -.234E+04   -.257E+00 -.493E+00 0.279E+00   0.160E-02 -.564E-02 -.566E-02
   -.302E+01 0.144E+01 0.843E+01   0.285E+01 -.994E+00 -.842E+01   0.183E+00 -.442E+00 0.136E-02   -.366E-02 -.538E-02 -.101E-01
   0.139E+02 -.132E+02 0.225E+04   -.143E+02 0.141E+02 -.225E+04   0.456E+00 -.934E+00 -.448E+00   -.297E-02 0.350E-02 -.786E-02
   -.128E+02 0.481E+00 -.225E+04   0.127E+02 -.733E+00 0.225E+04   0.129E+00 0.253E+00 0.429E+00   -.536E-02 -.265E-02 -.952E-02
   0.242E+01 0.356E+01 -.257E+02   -.228E+01 -.372E+01 0.252E+02   -.123E+00 0.159E+00 0.566E+00   -.114E-01 -.448E-02 -.151E-01
   0.173E+02 0.316E+01 0.224E+04   -.174E+02 -.328E+01 -.224E+04   0.898E-01 0.110E+00 -.321E+00   -.954E-02 0.700E-03 -.568E-02
   -.523E+01 0.767E+01 -.229E+04   0.510E+01 -.846E+01 0.229E+04   0.140E+00 0.794E+00 -.308E-01   -.455E-02 -.853E-03 -.489E-02
   0.775E+01 -.315E+01 -.446E+02   -.739E+01 0.257E+01 0.441E+02   -.360E+00 0.558E+00 0.456E+00   0.306E-02 0.826E-02 -.147E-01
   0.958E+01 -.323E+00 0.224E+04   -.978E+01 0.806E-01 -.224E+04   0.207E+00 0.252E+00 -.215E+00   -.955E-02 0.306E-02 -.172E-02
   -.326E+00 -.536E+01 -.230E+04   0.491E+00 0.580E+01 0.230E+04   -.155E+00 -.435E+00 -.148E+00   -.270E-02 -.190E-02 -.778E-02
   0.110E+01 0.824E+01 -.758E+01   -.115E+01 -.799E+01 0.709E+01   0.531E-01 -.248E+00 0.503E+00   0.295E-02 -.290E-02 -.125E-01
   -.421E+01 0.846E+00 -.228E+04   0.443E+01 -.992E+00 0.228E+04   -.221E+00 0.137E+00 -.179E+00   -.186E-02 -.659E-03 -.519E-02
   -.118E+02 0.342E+01 0.223E+04   0.121E+02 -.349E+01 -.223E+04   -.224E+00 0.800E-01 -.186E+00   0.313E-02 -.414E-02 -.152E-02
   -.315E+01 -.291E+01 -.661E+01   0.322E+01 0.327E+01 0.611E+01   -.820E-01 -.359E+00 0.523E+00   0.126E-01 0.357E-03 -.149E-01
   0.450E+01 0.280E+00 -.233E+04   -.445E+01 -.203E+00 0.233E+04   -.530E-01 -.752E-01 -.266E+00   0.431E-02 -.288E-03 -.489E-02
   -.594E+01 -.266E+01 0.437E+02   0.545E+01 0.301E+01 -.425E+02   0.478E+00 -.352E+00 -.112E+01   0.120E-01 0.186E-02 -.145E-01
   0.380E+01 0.850E+01 0.228E+04   -.399E+01 -.976E+01 -.228E+04   0.180E+00 0.125E+01 -.385E+00   0.207E-02 0.148E-02 -.674E-02
   -.182E+02 0.119E+02 0.228E+04   0.189E+02 -.128E+02 -.228E+04   -.686E+00 0.831E+00 0.119E-02   0.104E-01 -.169E-02 -.241E-02
   -.154E+01 -.110E+01 -.136E+02   0.120E+01 0.669E+00 0.137E+02   0.343E+00 0.439E+00 -.594E-01   -.303E-02 -.454E-02 -.132E-01
   0.885E+01 -.842E+00 -.224E+04   -.901E+01 0.388E+00 0.224E+04   0.147E+00 0.451E+00 0.133E+00   0.531E-02 0.479E-04 -.112E-01
   0.521E+01 -.106E+02 -.198E+04   -.514E+01 0.107E+02 0.197E+04   -.768E-01 -.611E-01 0.144E+01   -.101E-02 -.386E-02 -.397E-02
   0.124E+02 -.419E+01 -.198E+04   -.125E+02 0.438E+01 0.197E+04   0.166E+00 -.180E+00 0.151E+01   -.165E-02 -.218E-02 -.690E-02
   0.361E+01 -.239E+01 -.195E+04   -.401E+01 0.286E+01 0.195E+04   0.410E+00 -.477E+00 0.183E+01   0.292E-02 0.308E-02 -.301E-02
   -.825E+01 0.104E+02 0.199E+04   0.808E+01 -.105E+02 -.199E+04   0.161E+00 0.982E-01 -.125E+01   0.734E-02 -.126E-02 -.533E-02
   -.133E+01 0.637E+01 0.364E+02   0.112E+01 -.653E+01 -.356E+02   0.204E+00 0.154E+00 -.792E+00   0.408E-02 0.734E-02 -.134E-01
   0.267E+01 -.384E+01 0.206E+02   -.302E+01 0.379E+01 -.206E+02   0.351E+00 0.562E-01 -.351E-01   0.125E-02 -.330E-02 -.107E-01
   0.166E+02 -.910E+01 -.197E+04   -.171E+02 0.878E+01 0.197E+04   0.434E+00 0.319E+00 0.156E+01   0.643E-02 -.260E-02 -.458E-02
   -.117E+01 -.320E+01 0.198E+04   0.123E+01 0.316E+01 -.198E+04   -.710E-01 0.414E-01 -.168E+01   0.232E-02 0.177E-02 -.500E-02
   0.400E+01 -.136E+01 -.110E+02   -.357E+01 0.160E+01 0.106E+02   -.417E+00 -.232E+00 0.471E+00   -.105E-01 -.253E-02 -.937E-02
   0.702E+01 0.319E+01 0.198E+04   -.666E+01 -.330E+01 -.197E+04   -.362E+00 0.120E+00 -.174E+01   -.332E-02 -.209E-02 -.552E-02
   0.921E+01 0.121E+02 -.197E+04   -.938E+01 -.123E+02 0.197E+04   0.179E+00 0.155E+00 0.158E+01   0.418E-02 0.543E-02 -.574E-02
   0.325E+01 -.598E+01 0.199E+04   -.338E+01 0.608E+01 -.199E+04   0.134E+00 -.124E+00 -.153E+01   -.205E-02 -.185E-02 -.288E-02
   -.477E+01 0.995E+01 0.164E+02   0.461E+01 -.984E+01 -.160E+02   0.164E+00 -.124E+00 -.393E+00   0.396E-02 -.459E-03 -.105E-01
   0.616E+01 -.805E+00 -.238E+01   -.564E+01 0.534E+00 0.236E+01   -.525E+00 0.276E+00 0.300E-01   -.518E-02 0.310E-02 -.130E-01
   -.506E+01 0.145E+02 -.201E+04   0.507E+01 -.148E+02 0.200E+04   -.125E-01 0.268E+00 0.162E+01   0.106E-02 0.318E-02 -.851E-02
   -.454E+01 -.486E+01 -.274E+02   0.447E+01 0.515E+01 0.270E+02   0.874E-01 -.285E+00 0.401E+00   -.237E-02 0.183E-02 -.138E-01
   -.151E+02 0.163E+02 -.199E+04   0.154E+02 -.167E+02 0.199E+04   -.278E+00 0.452E+00 0.185E+01   -.853E-03 0.749E-02 -.419E-02
   0.488E+01 -.146E+02 0.199E+04   -.497E+01 0.144E+02 -.199E+04   0.883E-01 0.164E+00 -.134E+01   -.128E-02 0.592E-02 -.457E-02
   -.123E+00 0.859E+00 0.197E+04   0.262E+00 -.616E+00 -.197E+04   -.137E+00 -.232E+00 -.152E+01   -.400E-02 -.264E-02 -.475E-02
   0.243E+01 -.424E+01 -.270E+02   -.218E+01 0.410E+01 0.264E+02   -.259E+00 0.148E+00 0.529E+00   0.453E-02 -.295E-02 -.129E-01
   -.115E+01 0.469E+01 0.195E+04   0.915E+00 -.479E+01 -.195E+04   0.237E+00 0.108E+00 -.176E+01   -.237E-02 -.279E-02 -.113E-02
   -.777E+01 0.368E+01 0.198E+04   0.768E+01 -.369E+01 -.198E+04   0.808E-01 0.148E-01 -.160E+01   0.510E-02 0.321E-02 -.193E-02
   -.361E+00 0.389E+01 0.436E+02   0.370E+00 -.368E+01 -.426E+02   0.273E-02 -.214E+00 -.981E+00   -.513E-02 -.752E-03 -.136E-01
   -.237E+02 -.421E+00 -.196E+04   0.242E+02 0.904E+00 0.196E+04   -.480E+00 -.483E+00 0.176E+01   -.810E-02 -.249E-03 -.396E-02
   0.250E+00 0.418E-01 0.388E+00   0.675E-13 0.346E-13 -.205E-11   -.230E+00 -.278E-01 -.254E-02   0.796E-03 0.302E-04 -.363E+00

 POSITION                                       TOTAL-FORCE (eV/Angst)
     12.36427      7.17577     14.72790         0.004171     -0.004302      0.005295
      8.28998      4.77625     14.67069         0.003104     -0.007476      0.002626
     10.99344      7.97453      9.69651         0.005370      0.008840     -0.006980
      5.49504      1.58441     12.26030        -0.012820      0.005561      0.000523
      9.63381      0.81493      9.61827         0.000025     -0.004871      0.011496
      8.23922      1.59815     12.23876         0.007573      0.003639      0.001117
      8.22490      7.96761      9.74226        -0.012063     -0.002922      0.003672
      5.52107      4.75009     14.76548         0.001124     -0.000855      0.010629
      5.49915      6.34367     12.26750         0.000580     -0.006296      0.003088
      6.85452      5.55488      9.75220         0.000462     -0.006507     -0.008263
      6.89387      2.35424     14.80034         0.006037      0.003033      0.000457
      2.74955      1.57741     12.28512         0.005826     -0.006145     -0.002627
      5.48124      3.16973      9.77888        -0.002685      0.012625     -0.005590
      4.14229      7.15965     14.85140         0.007164     -0.000676      0.003300
     10.99243      1.58642     12.24644         0.003820     -0.001647     -0.003313
      0.03340     -0.00270     14.81306        -0.002724     -0.009962      0.000428
     13.75761      7.94340      9.76072        -0.015366      0.004179     -0.006907
     12.37627      3.98026     12.24340        -0.000478      0.002368     -0.001459
      1.39147      2.37561     14.88485         0.007601      0.001375     -0.002470
     10.98718      6.36013     12.20625        -0.003902      0.005140      0.001377
      9.61867      5.52594      9.68318        -0.014454     -0.004622     -0.007510
     12.39562      5.53469      9.69385         0.003336      0.000303     -0.010656
     15.11436      8.72011     12.26316         0.000523     -0.000333      0.005647
      2.75423      4.75785     14.76349        -0.000019     -0.002071      0.009549
      9.65159      2.38069     14.63259        -0.000412      0.004193     -0.007713
      8.26613      0.00824     14.63296         0.003695      0.001803     -0.001730
      9.62876      7.16391     14.55072         0.008914     -0.000373      0.005096
     11.00007      3.16858      9.84595        -0.000908      0.001573      0.002480
      9.61155      8.71642     12.20116         0.000959      0.003621      0.002701
      9.59835      3.98934     12.21746         0.002421      0.002416     -0.001971
     11.00610      4.76551     14.60817         0.005282     -0.006829     -0.002921
      1.37932      0.81312      9.87654        -0.009340     -0.000078      0.000879
      6.87607      3.98014     12.25440        -0.003016      0.003908     -0.003177
      8.25180      3.16418      9.85960        -0.006698      0.011651     -0.008386
      5.50191     -0.00270     14.59732         0.004536     -0.001695     -0.001589
      6.86860      0.81053      9.84881         0.000352     -0.019850     -0.000880
     12.35567      8.72117     12.22850         0.000233     -0.010209     -0.004001
      6.89427      8.71956     12.24234        -0.003651      0.008007      0.000411
      4.13425      2.35584     14.67464         0.002507     -0.001036     -0.001873
      4.12819      3.97758     12.27805         0.012923     -0.001473     -0.001287
      2.78432     -0.02501     14.62627         0.004938      0.004942      0.001457
      4.10780      0.80547      9.86879        -0.003912      0.001773     -0.000148
      5.49030      7.95697      9.87099        -0.002340      0.007710      0.008545
     13.74588      6.35074     12.27525        -0.003637      0.004831     -0.001419
      4.11312      5.55260      9.91065        -0.003649     -0.003777      0.005296
      2.73710      3.16148      9.88600        -0.002806      0.004357      0.000864
      8.24076      6.34971     12.19636         0.005839     -0.003233     -0.002249
      6.90967      7.16022     14.60532        -0.004437     -0.000610      0.008189
    total drift:                                0.020888      0.014059      0.022365

  FREE ENERGIE OF THE ION-ELECTRON SYSTEM (eV)
  free  energy   TOTEN  =      -192.51729302 eV

  energy  without entropy=     -192.27998147  energy(sigma->0) =     -192.39863725

 d Force =-0.5281504E-06[-0.137E-05, 0.315E-06]  d Energy =-0.2076413E-06-0.321E-06
 d Force =-0.1394196E+00[-0.139E+00,-0.139E+00]  d Ewald  =-0.1394196E+00-0.210E-08

 stress matrix after NEB project (eV)
      0.00000      0.00000      0.00000
      0.00000      0.00000      0.00000
      0.00000      0.00000      0.00000
  FORCES: max atom, RMS     0.019873    0.009798
  FORCE total and by dimension    0.067882    0.019850
  Stress total and by dimension    0.000000    0.000000

 reached required accuracy - stopping structural energy minimisation