 vasp.5.4.1 24Jun15 (build Mar 14 2019 10:18:33) complex

 executed on INTEL-19.0.2+OPENMPI date 2022.07.15  17:54:28

 INCAR:
 POTCAR:    PAW_PBE Au 04Oct2007
 POTCAR:    PAW_PBE Pd 04Jan2005
 POTCAR:    PAW_PBE Au 04Oct2007

 POTCAR:    PAW_PBE Pd 04Jan2005

 Optimization of the real space projectors (new method)

 maximal supplied QI-value         = 15.12
 optimisation between [QCUT,QGAM] = [ 10.13, 20.41] = [ 28.73,116.64] Ry
 Optimized for a Real-space Cutoff    1.51 Angstroem

   l    n(q)    QCUT    max X(q) W(low)/X(q) W(high)/X(q)  e(spline)
   2      8    10.129    60.898    0.46E-03    0.46E-03    0.14E-06
   2      8    10.129    58.894    0.47E-03    0.47E-03    0.14E-06
   0      9    10.129   109.617    0.16E-03    0.11E-03    0.54E-07
   0      9    10.129    75.026    0.15E-03    0.11E-03    0.52E-07
   1      9    10.129    16.344    0.96E-04    0.15E-03    0.14E-06
   1      9    10.129    10.160    0.81E-04    0.12E-03    0.11E-06
 Optimization of the real space projectors (new method)

 maximal supplied QI-value         = 14.36
 optimisation between [QCUT,QGAM] = [ 10.20, 20.39] = [ 29.12,116.47] Ry
 Optimized for a Real-space Cutoff    1.51 Angstroem

   l    n(q)    QCUT    max X(q) W(low)/X(q) W(high)/X(q)  e(spline)
   2      8    10.197    59.108    0.26E-03    0.14E-03    0.96E-07
   2      8    10.197    58.101    0.27E-03    0.14E-03    0.98E-07
   0      9    10.197   102.235    0.54E-04    0.60E-05    0.72E-07
   0      9    10.197    58.388    0.52E-04    0.60E-05    0.68E-07
   1      9    10.197    22.191    0.18E-03    0.25E-03    0.79E-07
   1      9    10.197    15.590    0.15E-03    0.21E-03    0.69E-07
  PAW_PBE Au 04Oct2007                  :
  PAW_PBE Pd 04Jan2005                  :

 POSCAR: Au Pd
  positions in cartesian coordinates
 exchange correlation table for  LEXCH =        8
   RHO(1)=    0.500       N(1)  =     2000
   RHO(2)=  100.500       N(2)  =     4000

 VTST: version 3.2, (02/03/18)

 CHAIN: initializing optimizer

 OPT: Using VASP Conjugate-Gradient optimizer
 CHAIN: Read ICHAIN            0

 POSCAR: Au Pd
  positions in cartesian coordinates

 ion  position               nearest neighbor table
   1  0.333  0.333  0.408-   2 2.75   4 2.75  10 2.75  16 2.75  44 2.75  34 2.75  22 2.75  36 2.75
                            12 2.75
   2  0.417  0.417  0.500-   1 2.75  33 2.75  37 2.75   9 2.75  36 2.75  15 2.75  38 2.75  12 2.75
                            25 2.75  10 2.75  34 2.75  13 2.75
   3  0.583  0.833  0.408-   5 2.75   4 2.75  16 2.75  19 2.75  47 2.75  30 2.75   7 2.75  27 2.75
                            29 2.75
   4  0.583  0.083  0.408-   9 2.75   3 2.75   1 2.75  30 2.75  34 2.75   8 2.75  16 2.75   5 2.75
                            36 2.75
   5  0.667  0.917  0.500-   3 2.75  48 2.75  35 2.75   9 2.75  36 2.75  43 2.75  27 2.75  29 2.75
                            41 2.75   4 2.75  30 2.75  11 2.75
   6  0.167  0.917  0.500-  42 2.75  32 2.75  45 2.75  40 2.75  15 2.75  38 2.75  46 2.75  41 2.75
                            29 2.75  31 2.75   7 2.75  14 2.75
   7  0.333  0.833  0.408-  29 2.75  16 2.75  10 2.75  31 2.75  47 2.75  42 2.75   3 2.75  15 2.75
                             6 2.75
   8  0.833  0.083  0.408-  46 2.75  30 2.75  34 2.75  42 2.75  24 2.75  31 2.75   4 2.75  41 2.75
                             9 2.75
   9  0.667  0.167  0.500-   4 2.75  11 2.75  33 2.75   2 2.75  25 2.75   5 2.75  41 2.75  36 2.75
                            46 2.75  34 2.75  26 2.75   8 2.75
  10  0.333  0.583  0.408-  15 2.75   7 2.75   1 2.75  34 2.75  42 2.75  44 2.75  47 2.75   2 2.75
                            38 2.75
  11  0.750  0.000  0.592-   9 2.75  41 2.75  26 2.75  33 2.75  17 2.75  48 2.75  45 2.75  35 2.75
                             5 2.75
  12  0.167  0.417  0.500-  22 2.75  39 2.75  18 2.75  38 2.75  36 2.75  40 2.75  43 2.75   2 2.75
                            21 2.75  44 2.75  37 2.75   1 2.75
  13  0.500  0.500  0.592-  15 2.75  25 2.75  26 2.75  28 2.75  32 2.75  33 2.75  23 2.75  37 2.75
                             2 2.75
  14  0.250  0.000  0.592-  40 2.75  29 2.75  20 2.75  32 2.75  39 2.75  28 2.75  35 2.75  45 2.75
                             6 2.75
  15  0.417  0.667  0.500-  10 2.75  13 2.75  32 2.75   6 2.75  25 2.75  29 2.75   2 2.75  27 2.75
                            38 2.75   7 2.75  28 2.75  47 2.75
  16  0.333  0.083  0.408-  36 2.75   3 2.75   7 2.75  22 2.75   1 2.75  31 2.75   4 2.75  29 2.75
                            40 2.75
  17  0.000  0.750  0.592-  41 2.75  38 2.75  37 2.75  11 2.75  18 2.75  45 2.75  32 2.75  48 2.75
                            43 2.75
  18  0.000  0.500  0.592-  43 2.75  12 2.75  20 2.75  39 2.75  17 2.75  48 2.75  37 2.75  23 2.75
                            21 2.75
  19  0.833  0.583  0.408-  43 2.75  22 2.75  24 2.75  30 2.75   3 2.75  44 2.75  47 2.75  21 2.75
                            27 2.75
  20  0.000  0.250  0.592-  21 2.75  40 2.75  14 2.75  23 2.75  18 2.75  45 2.75  26 2.75  39 2.75
                            46 2.75
  21  0.917  0.417  0.500-  24 2.75  20 2.75  23 2.75  27 2.75  40 2.75  43 2.75  46 2.75  12 2.75
                            25 2.75  19 2.75  22 2.75  18 2.75
  22  0.083  0.333  0.408-  12 2.75  16 2.75  19 2.75  31 2.75  44 2.75   1 2.75  24 2.75  40 2.75
                            21 2.75
  23  0.750  0.500  0.592-  27 2.75  21 2.75  26 2.75  20 2.75  28 2.75  48 2.75  13 2.75  18 2.75
                            25 2.75
  24  0.833  0.333  0.408-  21 2.75  19 2.75   8 2.75  31 2.75  47 2.75  34 2.75  22 2.75  46 2.75
                            25 2.75
  25  0.667  0.417  0.500-  34 2.75  26 2.75  13 2.75   9 2.75  27 2.75  15 2.75  46 2.75   2 2.75
                            21 2.75  47 2.75  24 2.75  23 2.75
  26  0.750  0.250  0.592-  25 2.75  46 2.75  23 2.75  11 2.75  45 2.75  13 2.75  20 2.75  33 2.75
                             9 2.75
  27  0.667  0.667  0.500-  47 2.75  23 2.75  28 2.75  25 2.75  21 2.75  29 2.75   5 2.75  43 2.75
                            15 2.75   3 2.75  19 2.75  48 2.75
  28  0.500  0.750  0.592-  29 2.75  27 2.75  23 2.75  13 2.75  14 2.75  35 2.75  32 2.75  48 2.75
                            15 2.75
  29  0.417  0.917  0.500-   7 2.75  28 2.75  14 2.75  27 2.75  15 2.75  36 2.75  40 2.75   6 2.75
                             5 2.75  16 2.75   3 2.75  35 2.75
  30  0.833  0.833  0.408-  41 2.75   8 2.75  19 2.75   4 2.75  44 2.75  42 2.75   3 2.75  43 2.75
                             5 2.75
  31  0.083  0.083  0.408-  40 2.75  22 2.75  24 2.75   7 2.75  42 2.75   8 2.75  16 2.75   6 2.75
                            46 2.75
  32  0.250  0.750  0.592-   6 2.75  15 2.75  14 2.75  13 2.75  37 2.75  45 2.75  17 2.75  28 2.75
                            38 2.75
  33  0.500  0.250  0.592-   2 2.75   9 2.75  11 2.75  13 2.75  35 2.75  37 2.75  26 2.75  39 2.75
                            36 2.75
  34  0.583  0.333  0.408-  25 2.75   8 2.75  10 2.75   4 2.75  47 2.75   1 2.75  24 2.75   9 2.75
                             2 2.75
  35  0.500  0.000  0.592-  36 2.75   5 2.75  33 2.75  28 2.75  39 2.75  48 2.75  14 2.75  11 2.75
                            29 2.75
  36  0.417  0.167  0.500-  16 2.75  35 2.75  39 2.75   2 2.75  29 2.75   5 2.75  12 2.75   9 2.75
                            40 2.75   1 2.75  33 2.75   4 2.75
  37  0.250  0.500  0.592-  38 2.75   2 2.75  32 2.75  33 2.75  17 2.75  39 2.75  13 2.75  18 2.75
                            12 2.75
  38  0.167  0.667  0.500-  44 2.75  37 2.75  17 2.75   2 2.75   6 2.75  41 2.75  12 2.75  43 2.75
                            15 2.75  42 2.75  32 2.75  10 2.75
  39  0.250  0.250  0.592-  12 2.75  36 2.75  18 2.75  35 2.75  14 2.75  37 2.75  33 2.75  20 2.75
                            40 2.75
  40  0.167  0.167  0.500-  31 2.75  14 2.75  20 2.75  12 2.75  21 2.75  29 2.75   6 2.75  36 2.75
                            46 2.75  22 2.75  39 2.75  16 2.75
  41  0.917  0.917  0.500-  30 2.75  17 2.75  11 2.75   9 2.75  38 2.75  43 2.75  46 2.75   6 2.75
                             5 2.75   8 2.75  45 2.75  42 2.75
  42  0.083  0.833  0.408-   6 2.75   8 2.75  10 2.75  31 2.75  44 2.75   7 2.75  30 2.75  38 2.75
                            41 2.75
  43  0.917  0.667  0.500-  19 2.75  18 2.75  48 2.75  12 2.75  21 2.75  41 2.75   5 2.75  27 2.75
                            38 2.75  30 2.75  44 2.75  17 2.75
  44  0.083  0.583  0.408-  38 2.75  22 2.75  30 2.75   1 2.75  42 2.75  10 2.75  19 2.75  12 2.75
                            43 2.75
  45  0.000  0.000  0.592-  46 2.75   6 2.75  20 2.75  26 2.75  32 2.75  17 2.75  14 2.75  11 2.75
                            41 2.75
  46  0.917  0.167  0.500-   8 2.75  45 2.75  26 2.75  25 2.75   6 2.75  41 2.75  21 2.75   9 2.75
                            40 2.75  24 2.75  31 2.75  20 2.75
  47  0.583  0.583  0.408-  27 2.75   7 2.75  24 2.75   3 2.75  34 2.75  19 2.75  10 2.75  25 2.75
                            15 2.75
  48  0.750  0.750  0.592-   5 2.75  43 2.75  18 2.75  23 2.75  35 2.75  11 2.75  17 2.75  28 2.75
                            27 2.75

  LATTYP: Found a hexagonal cell.
 ALAT       =    11.0025815153
 C/A-ratio  =     2.2260035120

  Lattice vectors:

 A1 = (   5.5012907576,  -9.5285150994,   0.0000000000)
 A2 = ( -11.0025815153,   0.0000000000,   0.0000000000)
 A3 = (   0.0000000000,   0.0000000000, -24.4917850943)

Analysis of symmetry for initial positions (statically):
 Subroutine PRICEL returns:
 Original cell was already a primitive cell.

 Routine SETGRP: Setting up the symmetry group for a
 hexagonal supercell.

 Subroutine GETGRP returns: Found  1 space group operations
 (whereof  1 operations were pure point group operations)
 out of a pool of 24 trial point group operations.

The static configuration has the point symmetry C_1 .

Analysis of symmetry for dynamics (positions and initial velocities):
 Subroutine PRICEL returns:
 Original cell was already a primitive cell.

 Routine SETGRP: Setting up the symmetry group for a
 hexagonal supercell.

 Subroutine GETGRP returns: Found  1 space group operations
 (whereof  1 operations were pure point group operations)
 out of a pool of 24 trial point group operations.

The dynamic configuration has the point symmetry C_1 .

 KPOINTS: Automatic mesh

Automatic generation of k-mesh.
Space group operators:
 irot       det(A)        alpha          n_x          n_y          n_z        tau_x        tau_y        tau_z
    1     1.000000     0.000000     1.000000     0.000000     0.000000     0.000000     0.000000     0.000000

 Subroutine IBZKPT returns following result:

 Found      6 irreducible k-points:

 Following reciprocal coordinates:
            Coordinates               Weight
  0.250000  0.250000  0.000000     16.000000
  0.000000  0.250000  0.000000     16.000000
 -0.250000  0.000000  0.000000     16.000000
 -0.250000  0.250000  0.000000     16.000000
  0.500000 -0.250000  0.000000     16.000000
 -0.250000  0.500000  0.000000     16.000000

 Following cartesian coordinates:
            Coordinates               Weight
  0.022722  0.013119  0.000000     16.000000
  0.000000  0.026237  0.000000     16.000000
[...]
  0.7146  0.7146  0.2342

[...]

----------------------------------------- Iteration   23(   5)  ---------------------------------------

 eigenvalue-minimisations  :  2654
 total energy-change (2. order) :-0.6634582E-06  (-0.3925635E-06)
 number of electron     503.9999342 magnetization
 augmentation part      197.2861377 magnetization

 DIPCOR: dipole corrections for dipol
 direction  3 min pos     1,
 dipolmoment           0.000000      0.000000      0.005099 electrons x Angstroem
 Tr[quadrupol]    -10286.449544

 energy correction for charged system         0.000000 eV
 dipol+quadrupol energy correction           -0.000001 eV
 added-field ion interaction          0.002657 eV  (added to PSCEN)

  free energy =  -0.192807544547E+03  energy without entropy=  -0.192578891197E+03

 average (electrostatic) potential at core
  the test charge radii are     1.2098  1.1199
  (the norm of the test charge is              1.0000)
       1 -73.9516       2 -74.1432       3 -73.9510       4 -73.9417       5 -74.1237
       6 -74.1095       7 -73.9815       8 -73.9399       9 -74.1613      10 -73.9458
      11 -73.8933      12 -74.1587      13 -73.8192      14 -73.8960      15 -74.1421
      16 -74.0934      17 -73.8754      18 -73.9165      19 -74.0026      20 -73.9423
      21 -74.1283      22 -73.9728      23 -73.9440      24 -73.9570      25 -80.8954
      26 -80.8224      27 -80.9525      28 -80.8341      29 -80.8991      30 -80.8380
      31 -80.8471      32 -80.8516      33 -80.8431      34 -80.7932      35 -80.8967
      36 -80.8666      37 -80.8303      38 -80.9491      39 -80.8835      40 -80.9424
      41 -80.9308      42 -80.8422      43 -80.9402      44 -80.8359      45 -80.8379
      46 -80.9466      47 -80.8211      48 -80.8395

 E-fermi :  -1.1110     XC(G=0):  -4.5468     alpha+bet : -4.5211

[...]

 k-point     6 :      -0.2500    0.5000    0.0000
  band No.  band energies     occupation
      1      -8.4027      2.00000
      2      -7.9967      2.00000
      3      -7.8883      2.00000
      4      -7.4785      2.00000
      5      -7.1154      2.00000
      6      -7.0598      2.00000
      7      -6.9692      2.00000
      8      -6.8740      2.00000
      9      -6.8065      2.00000
     10      -6.7663      2.00000
     11      -6.6831      2.00000
     12      -6.6333      2.00000
     13      -6.5892      2.00000
     14      -6.5492      2.00000
     15      -6.5311      2.00000
     16      -6.5126      2.00000
     17      -6.4649      2.00000
     18      -6.4435      2.00000
     19      -6.4182      2.00000
     20      -6.4025      2.00000
     21      -6.3464      2.00000
     22      -6.3046      2.00000
     23      -6.2668      2.00000
     24      -6.2408      2.00000
     25      -6.2262      2.00000
     26      -6.2058      2.00000
     27      -6.1758      2.00000
     28      -6.1630      2.00000
     29      -6.1336      2.00000
     30      -6.1235      2.00000
     31      -6.1037      2.00000
     32      -6.0819      2.00000
     33      -6.0418      2.00000
     34      -6.0337      2.00000
     35      -6.0134      2.00000
     36      -5.9955      2.00000
     37      -5.9759      2.00000
     38      -5.9529      2.00000
     39      -5.9271      2.00000
     40      -5.8936      2.00000
     41      -5.8816      2.00000
     42      -5.8604      2.00000
     43      -5.8258      2.00000
     44      -5.7993      2.00000
     45      -5.7547      2.00000
     46      -5.7361      2.00000
     47      -5.7278      2.00000
     48      -5.6767      2.00000
     49      -5.6553      2.00000
     50      -5.6016      2.00000
     51      -5.5928      2.00000
     52      -5.5601      2.00000
     53      -5.5356      2.00000
     54      -5.4774      2.00000
     55      -5.4209      2.00000
     56      -5.4058      2.00000
     57      -5.3781      2.00000
     58      -5.3558      2.00000
     59      -5.3383      2.00000
     60      -5.3207      2.00000
[...]
    292       4.2043      0.00000
    293       4.4847      0.00000
    294       4.5211      0.00000
    295       4.5874      0.00000
    296       4.6242      0.00000
    297       4.6549      0.00000
    298       4.8188      0.00000
    299       4.8796      0.00000
    300       4.9195      0.00000
    301       4.9489      0.00000
    302       5.0607      0.00000
    303       5.0694      0.00000
    304       5.0945      0.00000
    305       5.2355      0.00000
    306       5.2606      0.00000

 soft charge-density along one line, spin component           1
         0         1         2         3         4         5         6         7         8         9
 total charge-density along one line

------------------------ aborting loop because EDIFF is reached ----------------------------------------

 VOLUME and BASIS-vectors are now :
  energy-cutoff  :      400.00
  volume of cell :     2567.68
      direct lattice vectors                 reciprocal lattice vectors
    11.002581515  0.000000000  0.000000000     0.090887761 -0.052474073  0.000000000
     5.501290758  9.528515099  0.000000000     0.000000000  0.104948147  0.000000000
     0.000000000  0.000000000 24.491785094     0.000000000  0.000000000  0.040830017

  length of vectors
    11.002581515 11.002581515 24.491785094     0.104948147  0.104948147  0.040830017

 FORCES acting on ions
    electron-ion (+dipol)            ewald-force                    non-local-force                 convergence-correction
   -.184E+01 -.147E+02 0.230E+04   0.224E+01 0.148E+02 -.230E+04   -.399E+00 -.114E+00 0.940E-01   -.519E-02 0.992E-02 0.151E-01
   0.130E+01 -.453E+01 -.801E+01   -.132E+01 0.422E+01 0.844E+01   0.294E-01 0.296E+00 -.496E+00   -.131E-01 0.225E-01 0.731E-01
   -.634E+01 0.154E+02 0.225E+04   0.634E+01 -.160E+02 -.225E+04   -.263E-02 0.617E+00 -.789E-01   0.597E-02 0.792E-02 0.143E-01
   -.189E+02 0.641E+01 0.228E+04   0.191E+02 -.616E+01 -.228E+04   -.198E+00 -.242E+00 -.121E+00   0.263E-02 -.508E-02 0.188E-01
   -.189E+00 -.555E+01 0.251E+01   -.168E+00 0.483E+01 -.203E+01   0.344E+00 0.708E+00 -.543E+00   0.812E-02 0.637E-02 0.652E-01
   -.829E+01 -.183E+01 -.259E+02   0.760E+01 0.230E+01 0.258E+02   0.706E+00 -.457E+00 0.389E-01   -.255E-01 -.391E-02 0.563E-01
   0.135E+02 0.422E+01 0.226E+04   -.137E+02 -.397E+01 -.227E+04   0.228E+00 -.251E+00 0.161E-01   -.663E-02 -.336E-02 0.107E-01
   -.136E+02 0.810E+01 0.222E+04   0.139E+02 -.872E+01 -.222E+04   -.314E+00 0.617E+00 -.119E+00   0.141E-01 -.454E-02 0.798E-02
   0.221E+01 0.972E+01 -.182E+02   -.168E+01 -.907E+01 0.187E+02   -.538E+00 -.645E+00 -.519E+00   0.529E-02 -.118E-01 0.611E-01
   0.278E+00 -.991E+01 0.226E+04   -.430E+00 0.985E+01 -.226E+04   0.162E+00 0.530E-01 0.158E+00   -.984E-02 0.856E-02 0.141E-01
   0.155E+02 -.692E+01 -.229E+04   -.154E+02 0.727E+01 0.229E+04   -.144E+00 -.365E+00 0.163E+00   -.678E-02 0.116E-01 0.251E-01
   0.716E+01 0.453E+01 -.255E+00   -.697E+01 -.448E+01 0.730E+00   -.198E+00 -.506E-01 -.535E+00   0.140E-01 0.138E-01 0.629E-01
   0.113E+02 0.710E+00 -.232E+04   -.116E+02 -.900E+00 0.232E+04   0.345E+00 0.187E+00 -.530E-01   -.223E-01 0.454E-02 0.383E-01
   -.148E+02 0.282E+01 -.226E+04   0.154E+02 -.315E+01 0.226E+04   -.600E+00 0.332E+00 0.267E+00   0.872E-02 0.331E-02 0.481E-01
   0.433E+01 0.358E+01 -.237E+02   -.346E+01 -.355E+01 0.241E+02   -.851E+00 -.282E-01 -.478E+00   -.294E-01 -.706E-02 0.634E-01
   0.147E+02 0.267E+01 0.221E+04   -.152E+02 -.271E+01 -.221E+04   0.522E+00 0.349E-01 -.679E+00   0.899E-02 0.517E-03 0.342E-01
   -.407E+01 -.237E+01 -.226E+04   0.457E+01 0.236E+01 0.226E+04   -.520E+00 0.210E-01 0.365E+00   0.155E-01 -.120E-02 0.912E-03
   -.967E+01 0.507E+01 -.230E+04   0.101E+02 -.465E+01 0.230E+04   -.488E+00 -.405E+00 -.786E-02   0.148E-01 -.125E-01 0.293E-01
   -.357E+01 -.102E+01 0.221E+04   0.377E+01 0.190E+01 -.221E+04   -.220E+00 -.876E+00 -.987E-01   0.144E-01 -.435E-02 -.680E-02
   -.668E+01 0.108E+02 -.226E+04   0.632E+01 -.115E+02 0.226E+04   0.350E+00 0.707E+00 0.180E+00   0.104E-01 -.579E-02 0.242E-01
   -.414E+01 0.733E+00 -.449E+02   0.356E+01 -.744E+00 0.449E+02   0.580E+00 0.162E-01 0.238E-01   0.751E-02 -.346E-02 0.302E-01
   0.143E+02 -.600E+01 0.225E+04   -.143E+02 0.568E+01 -.225E+04   -.591E-01 0.312E+00 0.208E+00   0.207E-02 0.109E-01 -.126E-03
   0.290E+01 -.902E+01 -.227E+04   -.351E+01 0.966E+01 0.227E+04   0.610E+00 -.639E+00 0.317E+00   -.454E-02 -.120E-02 0.227E-01
   0.591E+01 -.229E+00 0.221E+04   -.671E+01 0.402E-01 -.221E+04   0.790E+00 0.193E+00 -.169E+00   0.831E-02 -.994E-02 -.480E-02
   -.426E+01 -.219E+01 -.601E+02   0.452E+01 0.210E+01 0.596E+02   -.245E+00 0.102E+00 0.507E+00   -.819E-02 -.814E-02 0.508E-01
   0.854E+01 0.557E+01 -.200E+04   -.834E+01 -.571E+01 0.199E+04   -.181E+00 0.145E+00 0.175E+01   -.144E-01 -.811E-02 0.134E-01
   -.383E+01 0.348E+01 -.129E+02   0.364E+01 -.343E+01 0.134E+02   0.182E+00 -.440E-01 -.470E+00   0.113E-01 0.285E-02 0.437E-01
   -.463E+01 -.160E+02 -.198E+04   0.501E+01 0.163E+02 0.198E+04   -.361E+00 -.299E+00 0.165E+01   -.148E-01 0.683E-02 0.288E-01
   0.155E+01 -.193E+01 0.265E+02   -.109E+01 0.219E+01 -.257E+02   -.447E+00 -.244E+00 -.928E+00   -.156E-02 -.257E-02 0.733E-01
   -.170E+02 0.993E+01 0.194E+04   0.176E+02 -.102E+02 -.194E+04   -.608E+00 0.250E+00 -.173E+01   0.320E-02 0.572E-03 0.227E-01
   0.134E+02 0.799E+00 0.194E+04   -.135E+02 -.776E+00 -.194E+04   0.428E-01 -.227E-01 -.176E+01   -.135E-01 -.198E-02 0.181E-01
   -.317E+01 -.318E+00 -.200E+04   0.300E+01 0.199E+00 0.200E+04   0.179E+00 0.124E+00 0.170E+01   -.459E-02 -.676E-02 0.686E-02
   0.137E+02 0.789E+01 -.198E+04   -.142E+02 -.793E+01 0.198E+04   0.430E+00 0.374E-01 0.143E+01   -.149E-01 0.385E-02 0.304E-01
   -.169E+02 -.694E+01 0.195E+04   0.170E+02 0.737E+01 -.195E+04   -.144E+00 -.421E+00 -.133E+01   0.195E-02 -.397E-02 0.277E-01
   0.392E+01 -.635E+01 -.195E+04   -.411E+01 0.636E+01 0.195E+04   0.205E+00 -.299E-01 0.178E+01   -.867E-02 0.152E-01 0.515E-01
   0.965E+00 -.803E+00 0.605E+02   -.153E+01 0.522E+00 -.593E+02   0.568E+00 0.272E+00 -.131E+01   0.325E-02 0.526E-02 0.867E-01
   -.361E+01 0.101E+02 -.200E+04   0.389E+01 -.101E+02 0.200E+04   -.275E+00 0.250E-01 0.155E+01   0.536E-02 -.389E-02 0.159E-01
   -.252E+00 0.200E+01 -.269E+02   -.331E+00 -.173E+01 0.268E+02   0.575E+00 -.270E+00 0.348E-01   0.104E-01 -.521E-02 0.473E-01
   -.147E+02 0.100E+02 -.196E+04   0.152E+02 -.102E+02 0.196E+04   -.484E+00 0.185E+00 0.185E+01   0.828E-02 -.346E-02 0.467E-01
   0.847E+00 -.374E+01 -.201E+02   -.594E+00 0.355E+01 0.200E+02   -.246E+00 0.189E+00 0.309E-01   -.110E-01 -.131E-02 0.690E-01
   0.502E+01 -.161E+01 -.517E+02   -.462E+01 0.117E+01 0.512E+02   -.404E+00 0.439E+00 0.483E+00   0.142E-01 0.328E-02 0.406E-01
   0.107E+02 -.108E+01 0.195E+04   -.112E+02 0.893E+00 -.195E+04   0.538E+00 0.181E+00 -.165E+01   0.532E-02 0.519E-02 0.258E-01
   0.183E+01 0.553E+01 -.535E+02   -.168E+01 -.507E+01 0.529E+02   -.170E+00 -.461E+00 0.561E+00   0.105E-01 -.262E-02 0.401E-01
   0.404E+01 -.194E+02 0.194E+04   -.411E+01 0.200E+02 -.194E+04   0.501E-01 -.632E+00 -.176E+01   0.763E-02 -.588E-02 0.215E-01
   -.268E+01 -.598E+00 -.200E+04   0.236E+01 0.686E+00 0.200E+04   0.315E+00 -.792E-01 0.168E+01   0.624E-03 -.848E-02 0.259E-03
   -.276E+01 -.564E+01 -.256E+02   0.278E+01 0.554E+01 0.260E+02   -.228E-02 0.107E+00 -.418E+00   -.528E-02 -.186E-01 0.315E-01
   -.210E+01 0.110E+02 0.194E+04   0.215E+01 -.114E+02 -.193E+04   -.445E-01 0.345E+00 -.174E+01   -.990E-03 -.304E-03 0.109E-01
   0.996E+01 -.124E+02 -.198E+04   -.105E+02 0.123E+02 0.198E+04   0.559E+00 0.150E+00 0.179E+01   -.199E-02 0.109E-01 0.232E-01
   -.139E+00 -.801E-01 -.313E+01   0.570E-12 -.282E-12 0.114E-11   0.168E+00 0.697E-01 0.163E+01   -.381E-03 -.153E-02 0.153E+01

 POSITION                                       TOTAL-FORCE (eV/Angst)
      5.50001      3.18940      9.61981        -0.002623      0.009459      0.013638
      6.87733      3.97778     12.24848        -0.005859      0.007971      0.004692
     10.99267      7.92176      9.71340         0.004015     -0.001366     -0.004572
      6.88744      0.79113      9.66041        -0.003663     -0.006353     -0.006195
     12.37431      8.72160     12.23439        -0.005564      0.000199     -0.001634
      6.86583      8.74886     12.26464        -0.007886      0.007750      0.002408
      8.21554      7.94098      9.70062        -0.004123     -0.001269     -0.003307
      9.62959      0.77038      9.77914         0.013296      0.001279     -0.000410
      8.27258      1.59315     12.25928        -0.003913     -0.011242      0.005503
      6.85841      5.56230      9.70580        -0.000442     -0.000152      0.003077
      8.24981      0.00832     14.78583         0.001212      0.001775      0.005052
      4.12455      3.96983     12.24105         0.004860      0.006639      0.002519
      8.24038      4.75614     14.84296        -0.002154      0.001464     -0.013255
      2.78334     -0.01647     14.73125        -0.001022      0.006801      0.000777
      8.27294      6.35958     12.26559        -0.006268     -0.008686      0.002488
      4.10248      0.79468      9.74127         0.002696     -0.006594     -0.013016
      4.15244      7.14498     14.76144         0.001839      0.004535      0.005440
      2.77710      4.76498     14.83830        -0.002857      0.001710     -0.005515
     12.38426      5.57743      9.77811        -0.001218     -0.004100      0.003535
      1.38304      2.35891     14.77504        -0.000295     -0.000706      0.007516
     12.36503      3.97178     12.28704         0.003018      0.002206     -0.001688
      2.73348      3.17703      9.69554        -0.004890      0.008877      0.006220
     10.99375      4.78209     14.79500        -0.003270      0.000892      0.005708
     10.96680      3.17822      9.78417         0.005492     -0.006190     -0.001822
      9.63908      3.98051     12.30512         0.001149      0.004961     -0.007295
      9.63266      2.37149     14.65526         0.005208      0.001963      0.001052
     11.01165      6.35608     12.25313         0.011697      0.004961      0.006332
      9.64388      7.15531     14.61235         0.005293      0.000696      0.003525
      9.62763      8.74874     12.20281         0.003211      0.009023      0.004464
     13.76840      7.93010      9.90739        -0.007100     -0.004741     -0.012795
      1.35747      0.78955      9.90074        -0.014040     -0.001340      0.005026
      6.88946      7.14361     14.64186        -0.003759     -0.001628      0.003252
      6.86177      2.37312     14.60833        -0.003459     -0.001342      0.000286
      8.24391      3.18630      9.87298         0.006063      0.004683     -0.007813
      5.50606      0.00298     14.55550         0.004358     -0.003213      0.006429
      5.49529      1.58290     12.16395         0.000816     -0.003214     -0.004176
      5.51636      4.75471     14.64512         0.007311     -0.002908     -0.003582
      5.48727      6.36281     12.27194         0.002026     -0.007763      0.003410
      4.16544      2.37045     14.58552         0.003343     -0.001052     -0.003759
      2.76077      1.58575     12.25769        -0.004656     -0.004485     -0.007260
     15.12993      8.72600     12.29639         0.005766      0.003546      0.000570
      5.47448      7.93203      9.90994         0.000437      0.002773     -0.000363
     13.76361      6.35296     12.29466        -0.006121      0.000344     -0.007742
      4.12102      5.57818      9.89656        -0.004709     -0.004279      0.002052
      0.00432     -0.00227     14.65395         0.000448      0.000771     -0.001170
     11.00515      1.59435     12.26973         0.006710     -0.010767      0.001730
      9.61022      5.55130      9.89990         0.001672     -0.001307      0.000320
     12.36623      7.15553     14.63345        -0.002041     -0.000581      0.000350
    total drift:                                0.028355     -0.011905      0.031905

  FREE ENERGIE OF THE ION-ELECTRON SYSTEM (eV)
  free  energy   TOTEN  =      -192.80754455 eV

  energy  without entropy=     -192.57889120  energy(sigma->0) =     -192.69321787

 d Force = 0.3958633E-04[ 0.440E-05, 0.748E-04]  d Energy = 0.3245812E-04 0.713E-05
 d Force =-0.1909663E+01[-0.191E+01,-0.191E+01]  d Ewald  =-0.1909662E+01-0.951E-06

 stress matrix after NEB project (eV)
      0.00000      0.00000      0.00000
      0.00000      0.00000      0.00000
      0.00000      0.00000      0.00000
  FORCES: max atom, RMS     0.016803    0.009182
  FORCE total and by dimension    0.063615    0.014040
  Stress total and by dimension    0.000000    0.000000

 reached required accuracy - stopping structural energy minimisation