 vasp.5.4.1 24Jun15 (build Mar 14 2019 10:18:33) complex

 executed on INTEL-19.0.2+OPENMPI date 2023.01.30  16:27:00

 INCAR:
 POTCAR:    PAW_PBE Au 04Oct2007
 POTCAR:    PAW_PBE Pd 04Jan2005
 POTCAR:    PAW_PBE Au 04Oct2007

 POTCAR:    PAW_PBE Pd 04Jan2005

 Optimization of the real space projectors (new method)

 maximal supplied QI-value         = 15.12
 optimisation between [QCUT,QGAM] = [ 10.13, 20.41] = [ 28.73,116.64] Ry
 Optimized for a Real-space Cutoff    1.51 Angstroem

   l    n(q)    QCUT    max X(q) W(low)/X(q) W(high)/X(q)  e(spline)
   2      8    10.129    60.898    0.46E-03    0.46E-03    0.14E-06
   2      8    10.129    58.894    0.47E-03    0.47E-03    0.14E-06
   0      9    10.129   109.617    0.16E-03    0.11E-03    0.54E-07
   0      9    10.129    75.026    0.15E-03    0.11E-03    0.52E-07
   1      9    10.129    16.344    0.96E-04    0.15E-03    0.14E-06
   1      9    10.129    10.160    0.81E-04    0.12E-03    0.11E-06
 Optimization of the real space projectors (new method)

 maximal supplied QI-value         = 14.36
 optimisation between [QCUT,QGAM] = [ 10.20, 20.39] = [ 29.12,116.47] Ry
 Optimized for a Real-space Cutoff    1.51 Angstroem

   l    n(q)    QCUT    max X(q) W(low)/X(q) W(high)/X(q)  e(spline)
   2      8    10.197    59.108    0.26E-03    0.14E-03    0.96E-07
   2      8    10.197    58.101    0.27E-03    0.14E-03    0.98E-07
   0      9    10.197   102.235    0.54E-04    0.60E-05    0.72E-07
   0      9    10.197    58.388    0.52E-04    0.60E-05    0.68E-07
   1      9    10.197    22.191    0.18E-03    0.25E-03    0.79E-07
   1      9    10.197    15.590    0.15E-03    0.21E-03    0.69E-07
  PAW_PBE Au 04Oct2007                  :
  PAW_PBE Pd 04Jan2005                  :

 POSCAR: Au Pd
  positions in cartesian coordinates
 exchange correlation table for  LEXCH =        8
   RHO(1)=    0.500       N(1)  =     2000
   RHO(2)=  100.500       N(2)  =     4000

 VTST: version 3.2, (02/03/18)

 CHAIN: initializing optimizer

 OPT: Using VASP Conjugate-Gradient optimizer
 CHAIN: Read ICHAIN            0

 POSCAR: Au Pd
  positions in cartesian coordinates

 ion  position               nearest neighbor table
   1  0.083  0.083  0.408-  46 2.75   4 2.75  32 2.75  35 2.75   2 2.75  44 2.75  27 2.75  29 2.75
                            38 2.75
   2  0.833  0.333  0.408-  37 2.75   9 2.75  24 2.75   1 2.75  44 2.75  23 2.75   4 2.75  38 2.75
                            45 2.75
   3  0.000  0.000  0.592-  38 2.75  29 2.75  25 2.75   5 2.75  36 2.75  10 2.75  11 2.75  12 2.75
                            33 2.75
   4  0.083  0.333  0.408-  15 2.75   9 2.75   1 2.75  27 2.75  47 2.75  28 2.75   2 2.75  46 2.75
                            37 2.75
   5  0.000  0.250  0.592-  37 2.75  46 2.75  11 2.75   3 2.75  41 2.75   8 2.75  34 2.75  10 2.75
                            38 2.75
   6  0.667  0.667  0.500-  24 2.75  41 2.75  16 2.75  37 2.75  39 2.75  17 2.75  45 2.75  19 2.75
                             7 2.75  43 2.75   9 2.75  48 2.75
   7  0.917  0.667  0.500-   9 2.75   8 2.75  48 2.75  33 2.75  37 2.75  39 2.75  15 2.75   6 2.75
                            31 2.75  40 2.75  47 2.75  25 2.75
   8  0.000  0.500  0.592-   7 2.75  15 2.75   5 2.75  25 2.75  34 2.75  48 2.75  41 2.75  18 2.75
                            37 2.75
   9  0.833  0.583  0.408-   7 2.75   4 2.75   2 2.75  40 2.75  43 2.75  24 2.75  47 2.75  37 2.75
                             6 2.75
  10  0.750  0.250  0.592-  45 2.75  38 2.75   3 2.75  41 2.75  42 2.75  12 2.75   5 2.75  13 2.75
                            14 2.75
  11  0.250  0.000  0.592-  46 2.75  17 2.75   5 2.75  34 2.75  36 2.75  16 2.75  22 2.75   3 2.75
                            29 2.75
  12  0.750  0.000  0.592-  14 2.75  33 2.75  10 2.75  25 2.75  13 2.75  48 2.75  22 2.75   3 2.75
                            39 2.75
  13  0.500  0.250  0.592-  26 2.75  14 2.75  18 2.75  22 2.75  12 2.75  42 2.75  34 2.75  10 2.75
                            21 2.75
  14  0.667  0.167  0.500-  20 2.75  12 2.75  13 2.75  26 2.75  33 2.75  39 2.75  45 2.75  21 2.75
                            38 2.75  23 2.75  44 2.75  10 2.75
  15  0.167  0.417  0.500-   4 2.75  34 2.75   8 2.75  21 2.75  31 2.75   7 2.75  46 2.75  37 2.75
                            26 2.75  47 2.75  28 2.75  18 2.75
  16  0.500  0.750  0.592-  17 2.75   6 2.75  11 2.75  22 2.75  41 2.75  42 2.75  36 2.75  48 2.75
                            19 2.75
  17  0.417  0.917  0.500-  32 2.75  16 2.75  11 2.75  19 2.75  21 2.75   6 2.75  46 2.75  39 2.75
                            29 2.75  27 2.75  43 2.75  22 2.75
  18  0.250  0.500  0.592-  31 2.75  26 2.75  13 2.75  25 2.75  34 2.75  36 2.75   8 2.75  42 2.75
                            15 2.75
  19  0.417  0.667  0.500-  30 2.75  42 2.75  36 2.75  17 2.75  26 2.75  29 2.75  45 2.75  31 2.75
                             6 2.75  32 2.75  16 2.75  24 2.75
  20  0.583  0.083  0.408-  14 2.75  23 2.75  28 2.75  40 2.75  43 2.75  27 2.75  44 2.75  39 2.75
                            21 2.75
  21  0.417  0.167  0.500-  27 2.75  22 2.75  34 2.75  26 2.75  17 2.75  15 2.75  39 2.75  14 2.75
                            46 2.75  28 2.75  20 2.75  13 2.75
  22  0.500  0.000  0.592-  21 2.75  39 2.75  13 2.75  34 2.75  16 2.75  48 2.75  11 2.75  12 2.75
                            17 2.75
  23  0.583  0.333  0.408-  45 2.75  24 2.75  30 2.75  44 2.75  20 2.75  28 2.75   2 2.75  14 2.75
                            26 2.75
  24  0.583  0.583  0.408-   6 2.75   2 2.75  23 2.75  32 2.75  43 2.75   9 2.75  30 2.75  45 2.75
                            19 2.75
  25  0.000  0.750  0.592-  33 2.75  31 2.75  12 2.75  18 2.75   3 2.75   8 2.75  36 2.75  48 2.75
                             7 2.75
  26  0.417  0.417  0.500-  28 2.75  13 2.75  18 2.75  19 2.75  21 2.75  14 2.75  31 2.75  15 2.75
                            45 2.75  30 2.75  42 2.75  23 2.75
  27  0.333  0.083  0.408-  21 2.75   4 2.75  28 2.75  32 2.75  43 2.75   1 2.75  20 2.75  17 2.75
                            46 2.75
  28  0.333  0.333  0.408-  26 2.75  20 2.75  27 2.75  30 2.75  47 2.75   4 2.75  23 2.75  21 2.75
                            15 2.75
  29  0.167  0.917  0.500-  35 2.75  36 2.75   3 2.75  19 2.75  31 2.75  38 2.75  46 2.75  17 2.75
                            33 2.75   1 2.75  32 2.75  11 2.75
  30  0.333  0.583  0.408-  19 2.75  23 2.75  28 2.75  32 2.75  35 2.75  24 2.75  47 2.75  26 2.75
                            31 2.75
  31  0.167  0.667  0.500-  47 2.75  18 2.75  25 2.75  26 2.75  29 2.75  33 2.75  15 2.75  19 2.75
                             7 2.75  35 2.75  36 2.75  30 2.75
  32  0.333  0.833  0.408-  17 2.75   1 2.75  24 2.75  27 2.75  30 2.75  35 2.75  43 2.75  19 2.75
                            29 2.75
  33  0.917  0.917  0.500-  40 2.75  25 2.75  12 2.75   7 2.75  31 2.75  38 2.75  14 2.75  39 2.75
                            29 2.75  44 2.75   3 2.75  35 2.75
  34  0.250  0.250  0.592-  15 2.75  21 2.75   8 2.75  18 2.75  11 2.75  22 2.75   5 2.75  13 2.75
                            46 2.75
  35  0.083  0.833  0.408-  29 2.75   1 2.75  30 2.75  44 2.75  47 2.75  32 2.75  40 2.75  31 2.75
                            33 2.75
  36  0.250  0.750  0.592-  29 2.75  19 2.75  18 2.75   3 2.75  11 2.75  42 2.75  16 2.75  25 2.75
                            31 2.75
  37  0.917  0.417  0.500-   2 2.75   5 2.75  41 2.75   7 2.75  38 2.75   6 2.75  46 2.75  45 2.75
                            15 2.75   9 2.75   4 2.75   8 2.75
  38  0.917  0.167  0.500-  44 2.75   3 2.75  10 2.75  33 2.75  37 2.75  29 2.75  45 2.75  14 2.75
                            46 2.75   2 2.75   1 2.75   5 2.75
  39  0.667  0.917  0.500-  43 2.75  48 2.75  22 2.75  21 2.75   6 2.75   7 2.75  14 2.75  17 2.75
                            33 2.75  20 2.75  12 2.75  40 2.75
  40  0.833  0.833  0.408-  33 2.75  20 2.75   9 2.75  44 2.75  47 2.75  35 2.75  43 2.75   7 2.75
                            39 2.75
  41  0.750  0.500  0.592-   6 2.75  37 2.75  10 2.75  16 2.75   5 2.75  48 2.75  42 2.75   8 2.75
                            45 2.75
  42  0.500  0.500  0.592-  19 2.75  45 2.75  16 2.75  10 2.75  36 2.75  13 2.75  41 2.75  18 2.75
                            26 2.75
  43  0.583  0.833  0.408-  39 2.75  20 2.75  24 2.75  27 2.75   9 2.75  32 2.75  40 2.75   6 2.75
                            17 2.75
  44  0.833  0.083  0.408-  38 2.75  23 2.75  35 2.75   2 2.75  40 2.75   1 2.75  20 2.75  33 2.75
                            14 2.75
  45  0.667  0.417  0.500-  23 2.75  10 2.75  42 2.75  19 2.75   6 2.75  38 2.75  14 2.75  26 2.75
                            37 2.75  24 2.75  41 2.75   2 2.75
  46  0.167  0.167  0.500-   1 2.75  11 2.75   5 2.75  15 2.75  17 2.75  29 2.75  37 2.75  21 2.75
                            38 2.75   4 2.75  27 2.75  34 2.75
  47  0.083  0.583  0.408-  31 2.75  28 2.75   4 2.75  35 2.75  40 2.75  30 2.75   9 2.75  15 2.75
                             7 2.75
  48  0.750  0.750  0.592-  39 2.75   7 2.75  12 2.75  22 2.75   8 2.75  41 2.75  16 2.75  25 2.75
                             6 2.75

  LATTYP: Found a hexagonal cell.
 ALAT       =    11.0025815153
 C/A-ratio  =     2.2260035120

  Lattice vectors:

 A1 = (   5.5012907576,  -9.5285150994,   0.0000000000)
 A2 = ( -11.0025815153,   0.0000000000,   0.0000000000)
 A3 = (   0.0000000000,   0.0000000000, -24.4917850943)

Analysis of symmetry for initial positions (statically):
 Subroutine PRICEL returns:
 Original cell was already a primitive cell.

 Routine SETGRP: Setting up the symmetry group for a
 hexagonal supercell.

 Subroutine GETGRP returns: Found  1 space group operations
 (whereof  1 operations were pure point group operations)
 out of a pool of 24 trial point group operations.

The static configuration has the point symmetry C_1 .

Analysis of symmetry for dynamics (positions and initial velocities):
 Subroutine PRICEL returns:
 Original cell was already a primitive cell.

[...]

The dynamic configuration has the point symmetry C_1 .

Analysis of constrained symmetry for selective dynamics:
 Subroutine PRICEL returns:
 Original cell was already a primitive cell.

 Routine SETGRP: Setting up the symmetry group for a
 hexagonal supercell.

 Subroutine GETGRP returns: Found  1 space group operations
 (whereof  1 operations were pure point group operations)
 out of a pool of 24 trial point group operations.

The constrained configuration has the point symmetry C_1 .

 KPOINTS: Automatic mesh

Automatic generation of k-mesh.
Space group operators:
 irot       det(A)        alpha          n_x          n_y          n_z        tau_x        tau_y        tau_z
    1     1.000000     0.000000     1.000000     0.000000     0.000000     0.000000     0.000000     0.000000

 Subroutine IBZKPT returns following result:

 Found      6 irreducible k-points:

 Following reciprocal coordinates:
            Coordinates               Weight
  0.250000  0.250000  0.000000     16.000000
  0.000000  0.250000  0.000000     16.000000
 -0.250000  0.000000  0.000000     16.000000
 -0.250000  0.250000  0.000000     16.000000
  0.500000 -0.250000  0.000000     16.000000
[...]
 dipolmoment           0.000000      0.000000      0.021057 electrons x Angstroem
 Tr[quadrupol]    -10288.979075

 energy correction for charged system         0.000000 eV
 dipol+quadrupol energy correction           -0.000016 eV
 added-field ion interaction         -0.159636 eV  (added to PSCEN)

  free energy =  -0.192457575849E+03  energy without entropy=  -0.192209710785E+03

 average (electrostatic) potential at core
  the test charge radii are     1.2098  1.1199
  (the norm of the test charge is              1.0000)
       1 -73.9419       2 -74.0722       3 -73.9972       4 -74.0302       5 -74.0159
       6 -74.1788       7 -74.1474       8 -73.8870       9 -74.0154      10 -73.9304
      11 -73.9902      12 -73.9951      13 -73.9897      14 -74.1337      15 -74.1509
      16 -73.8716      17 -74.1281      18 -73.8571      19 -74.1513      20 -73.9661
      21 -74.1759      22 -73.9867      23 -74.0224      24 -74.0375      25 -80.8237
      26 -80.9039      27 -80.7817      28 -80.8076      29 -80.9724      30 -80.7651
      31 -80.9751      32 -80.7937      33 -80.9444      34 -80.7605      35 -80.7377
      36 -80.7903      37 -80.8581      38 -80.9066      39 -80.8755      40 -80.7491
      41 -80.8231      42 -80.8393      43 -80.7698      44 -80.7747      45 -80.8811
      46 -80.8814      47 -80.7824      48 -80.7859

 E-fermi :  -1.0815     XC(G=0):  -4.5473     alpha+bet : -4.5214

[...]

 k-point     6 :      -0.2500    0.5000    0.0000
  band No.  band energies     occupation
      1      -8.4901      2.00000
      2      -8.1579      2.00000
      3      -7.8486      2.00000
      4      -7.5805      2.00000
      5      -7.2661      2.00000
      6      -7.1377      2.00000
      7      -7.0060      2.00000
      8      -6.9278      2.00000
      9      -6.8283      2.00000
     10      -6.8127      2.00000
     11      -6.7435      2.00000
     12      -6.7109      2.00000
     13      -6.6651      2.00000
     14      -6.6477      2.00000
     15      -6.6096      2.00000
     16      -6.5902      2.00000
     17      -6.5611      2.00000
     18      -6.5113      2.00000
     19      -6.4768      2.00000
     20      -6.4476      2.00000
     21      -6.4164      2.00000
     22      -6.3894      2.00000
     23      -6.3507      2.00000
     24      -6.3134      2.00000
     25      -6.2985      2.00000
     26      -6.2592      2.00000
     27      -6.2336      2.00000
     28      -6.1975      2.00000
     29      -6.1880      2.00000
     30      -6.1267      2.00000
     31      -6.1131      2.00000
     32      -6.1018      2.00000
     33      -6.0722      2.00000
     34      -6.0431      2.00000
     35      -6.0189      2.00000
     36      -5.9887      2.00000
     37      -5.9783      2.00000
     38      -5.9642      2.00000
     39      -5.9397      2.00000
     40      -5.8924      2.00000
     41      -5.8748      2.00000
     42      -5.8415      2.00000
     43      -5.8151      2.00000
     44      -5.8005      2.00000
     45      -5.7861      2.00000
     46      -5.7384      2.00000
     47      -5.7148      2.00000
     48      -5.6737      2.00000
     49      -5.6414      2.00000
     50      -5.6102      2.00000
     51      -5.5779      2.00000
     52      -5.5525      2.00000
     53      -5.5296      2.00000
     54      -5.5065      2.00000
     55      -5.4574      2.00000
     56      -5.4340      2.00000
     57      -5.3860      2.00000
     58      -5.3565      2.00000
     59      -5.3300      2.00000
     60      -5.3193      2.00000
[...]
    292       4.2077      0.00000
    293       4.5052      0.00000
    294       4.5656      0.00000
    295       4.5781      0.00000
    296       4.6248      0.00000
    297       4.6685      0.00000
    298       4.8178      0.00000
    299       4.8885      0.00000
    300       4.9132      0.00000
    301       4.9924      0.00000
    302       5.0401      0.00000
    303       5.0728      0.00000
    304       5.0910      0.00000
    305       5.2118      0.00000
    306       5.2523      0.00000

 soft charge-density along one line, spin component           1
         0         1         2         3         4         5         6         7         8         9
 total charge-density along one line

------------------------ aborting loop because EDIFF is reached ----------------------------------------

 VOLUME and BASIS-vectors are now :
  energy-cutoff  :      400.00
  volume of cell :     2567.68
      direct lattice vectors                 reciprocal lattice vectors
    11.002581515  0.000000000  0.000000000     0.090887761 -0.052474073  0.000000000
     5.501290758  9.528515099  0.000000000     0.000000000  0.104948147  0.000000000
     0.000000000  0.000000000 24.491785094     0.000000000  0.000000000  0.040830017

  length of vectors
    11.002581515 11.002581515 24.491785094     0.104948147  0.104948147  0.040830017

 FORCES acting on ions
    electron-ion (+dipol)            ewald-force                    non-local-force                 convergence-correction
   0.879E-02 0.249E+02 0.222E+04   0.576E-01 -.259E+02 -.222E+04   -.907E-01 0.609E+00 -.710E+00   0.165E-02 0.111E-02 -.437E-02
   0.422E+01 0.113E+02 0.221E+04   -.466E+01 -.118E+02 -.221E+04   0.339E+00 0.294E+00 -.599E+00   0.100E-02 0.435E-03 -.402E-02
   -.145E+01 0.151E+02 -.219E+04   0.138E+01 -.163E+02 0.218E+04   0.779E-01 0.114E+01 0.611E+00   -.200E-02 -.182E-02 -.458E-02
   -.232E+02 0.191E+01 0.222E+04   0.240E+02 -.207E+01 -.222E+04   -.446E+00 0.110E+00 -.264E+00   0.297E-02 0.983E-03 -.426E-02
   -.389E+01 0.363E+01 -.221E+04   0.424E+01 -.317E+01 0.221E+04   -.343E+00 -.459E+00 0.785E+00   -.389E-03 -.548E-03 -.269E-02
   0.544E+01 -.102E+02 -.280E+02   -.497E+01 0.987E+01 0.288E+02   -.474E+00 0.284E+00 -.706E+00   0.226E-02 0.198E-02 -.922E-02
   -.301E+01 0.312E+00 0.353E+02   0.354E+01 0.579E+00 -.353E+02   -.532E+00 -.895E+00 -.279E-01   0.130E-02 0.314E-02 -.946E-02
   -.509E+01 -.795E+01 -.227E+04   0.461E+01 0.827E+01 0.227E+04   0.485E+00 -.332E+00 0.460E-01   0.347E-03 0.131E-02 -.767E-03
   -.127E+02 -.209E+02 0.222E+04   0.132E+02 0.216E+02 -.222E+04   -.290E+00 -.395E+00 0.699E-01   0.229E-02 0.271E-02 -.319E-02
   -.292E+01 -.612E+00 -.226E+04   0.309E+01 0.181E+01 0.226E+04   -.171E+00 -.119E+01 0.216E+00   -.535E-03 -.269E-02 -.208E-02
   0.850E+01 0.489E+01 -.221E+04   -.856E+01 -.472E+01 0.221E+04   0.607E-01 -.178E+00 0.193E+00   -.484E-03 -.147E-02 -.111E-02
   -.908E+01 0.138E+02 -.222E+04   0.901E+01 -.152E+02 0.222E+04   0.841E-01 0.132E+01 0.202E+00   0.802E-03 -.160E-02 -.488E-02
   0.284E+01 -.658E+01 -.226E+04   -.319E+01 0.739E+01 0.226E+04   0.355E+00 -.810E+00 0.421E-01   -.210E-03 -.137E-02 -.224E-02
   0.450E+01 0.390E+01 -.147E+02   -.370E+01 -.407E+01 0.142E+02   -.804E+00 0.180E+00 0.510E+00   -.758E-04 -.430E-02 -.733E-02
   -.292E+01 -.424E+01 0.156E+02   0.322E+01 0.410E+01 -.161E+02   -.301E+00 0.144E+00 0.541E+00   0.390E-03 0.133E-02 -.916E-02
   0.882E+01 0.454E+01 -.231E+04   -.881E+01 -.543E+01 0.231E+04   -.162E-02 0.896E+00 -.173E+00   -.432E-03 0.136E-02 -.397E-03
   -.248E+01 0.168E+01 0.393E+02   0.231E+01 -.119E+01 -.410E+02   0.173E+00 -.488E+00 0.166E+01   0.283E-02 -.168E-03 -.803E-02
   -.753E+00 -.150E+02 -.224E+04   0.129E+01 0.155E+02 0.224E+04   -.534E+00 -.534E+00 0.857E-01   -.570E-03 0.116E-02 -.167E-02
   -.320E+01 -.742E+01 0.323E+02   0.195E+01 0.694E+01 -.322E+02   0.125E+01 0.472E+00 -.854E-01   -.597E-03 0.305E-03 -.814E-02
   0.460E+01 0.146E+02 0.223E+04   -.495E+01 -.156E+02 -.223E+04   0.283E+00 0.643E+00 -.182E-01   -.149E-02 -.170E-02 -.300E-02
   -.766E+01 0.545E+01 0.668E+01   0.717E+01 -.521E+01 -.699E+01   0.488E+00 -.235E+00 0.321E+00   0.145E-02 -.663E-03 -.101E-01
   0.226E+01 0.165E+01 -.225E+04   -.205E+01 -.176E+01 0.225E+04   -.211E+00 0.113E+00 -.102E+00   0.112E-02 -.902E-03 -.254E-02
   0.175E+02 -.117E+01 0.222E+04   -.180E+02 0.155E+01 -.222E+04   0.305E+00 -.291E+00 -.182E+00   -.271E-02 -.109E-02 -.403E-02
   0.125E+02 -.195E+02 0.223E+04   -.129E+02 0.203E+02 -.223E+04   0.279E+00 -.553E+00 -.133E-01   0.110E-02 0.141E-02 -.443E-02
   -.808E+01 -.173E+01 -.194E+04   0.827E+01 0.191E+01 0.193E+04   -.181E+00 -.185E+00 0.151E+01   0.908E-04 0.174E-02 -.541E-02
   0.594E+01 0.325E+01 0.158E+02   -.578E+01 -.273E+01 -.162E+02   -.159E+00 -.516E+00 0.416E+00   -.188E-02 -.726E-03 -.810E-02
   -.459E+01 0.705E+01 0.204E+04   0.451E+01 -.716E+01 -.203E+04   0.820E-01 0.275E-01 -.148E+01   0.254E-02 0.531E-03 -.441E-02
   0.126E+01 -.119E+02 0.203E+04   -.111E+01 0.123E+02 -.203E+04   -.157E+00 -.202E+00 -.150E+01   -.116E-02 -.710E-03 -.370E-02
   -.269E+01 -.465E+01 0.448E+02   0.211E+01 0.446E+01 -.452E+02   0.585E+00 0.188E+00 0.408E+00   -.336E-02 -.106E-02 -.544E-02
   0.227E+02 -.802E+01 0.204E+04   -.233E+02 0.816E+01 -.204E+04   0.312E+00 -.249E-01 -.180E+01   -.168E-02 -.226E-02 -.316E-02
   0.167E+01 0.367E+01 0.679E+02   -.143E+01 -.316E+01 -.684E+02   -.234E+00 -.525E+00 0.494E+00   -.287E-02 0.115E-02 -.668E-02
   0.748E+01 -.222E+01 0.204E+04   -.767E+01 0.226E+01 -.204E+04   0.133E+00 -.375E-01 -.164E+01   0.289E-02 0.923E-03 -.372E-02
   0.205E+01 -.430E+01 0.637E+02   -.173E+01 0.406E+01 -.645E+02   -.316E+00 0.241E+00 0.772E+00   -.247E-02 -.761E-03 -.652E-02
   0.405E+01 -.132E+01 -.196E+04   -.419E+01 0.115E+01 0.196E+04   0.134E+00 0.174E+00 0.134E+01   0.545E-03 0.169E-03 -.291E-02
   0.530E+01 0.105E+02 0.204E+04   -.543E+01 -.106E+02 -.204E+04   0.530E-01 0.252E-01 -.204E+01   -.368E-02 -.862E-03 -.866E-03
   0.819E+01 -.173E+01 -.193E+04   -.852E+01 0.155E+01 0.193E+04   0.344E+00 0.196E+00 0.153E+01   -.148E-02 0.928E-03 -.261E-02
   -.532E+01 0.295E+01 -.244E+02   0.472E+01 -.345E+01 0.249E+02   0.597E+00 0.507E+00 -.515E+00   0.140E-02 0.146E-02 -.759E-02
   0.730E+00 0.610E+01 0.431E+01   -.629E+00 -.615E+01 -.475E+01   -.972E-01 0.585E-01 0.455E+00   -.241E-02 -.228E-02 -.617E-02
   0.184E+01 -.617E+01 0.131E+02   -.149E+01 0.577E+01 -.135E+02   -.347E+00 0.400E+00 0.385E+00   0.297E-02 -.234E-03 -.820E-02
   -.109E+02 -.574E+01 0.204E+04   0.112E+02 0.599E+01 -.203E+04   -.117E+00 -.199E+00 -.170E+01   -.136E-02 -.336E-03 -.109E-02
   0.103E+01 -.286E+01 -.198E+04   -.125E+01 0.294E+01 0.198E+04   0.228E+00 -.883E-01 0.179E+01   0.115E-02 0.330E-03 -.300E-02
   0.373E+01 -.667E+01 -.195E+04   -.359E+01 0.676E+01 0.195E+04   -.137E+00 -.859E-01 0.161E+01   -.117E-02 0.456E-03 -.285E-02
   -.156E+01 -.124E+02 0.203E+04   0.164E+01 0.126E+02 -.203E+04   -.829E-01 -.154E+00 -.143E+01   0.215E-02 0.159E-02 -.323E-02
   -.153E+00 0.245E+02 0.203E+04   0.352E+00 -.251E+02 -.203E+04   -.155E+00 0.385E+00 -.176E+01   -.267E-02 -.193E-02 -.109E-02
   0.198E+01 0.489E+01 -.128E+02   -.181E+01 -.499E+01 0.137E+02   -.169E+00 0.118E+00 -.877E+00   0.816E-04 -.687E-03 -.747E-02
   0.274E+01 0.410E+01 0.919E+01   -.295E+01 -.419E+01 -.913E+01   0.221E+00 0.905E-01 -.527E-01   0.964E-03 0.823E-03 -.754E-02
   -.223E+02 -.127E+02 0.204E+04   0.229E+02 0.130E+02 -.204E+04   -.319E+00 -.209E+00 -.175E+01   -.139E-02 -.476E-03 -.259E-02
   -.788E+01 0.113E+01 -.197E+04   0.803E+01 -.115E+01 0.197E+04   -.142E+00 0.219E-01 0.147E+01   0.149E-02 0.158E-02 -.391E-02
   -.409E-01 -.308E-01 0.214E+01   0.497E-13 -.888E-13 0.341E-11   0.551E-01 0.473E-01 -.196E+01   -.130E-02 -.174E-02 -.220E+00

 POSITION                                       TOTAL-FORCE (eV/Angst)
      1.37532      0.79404     10.00000        -0.022994     -0.350545     -0.099001
     11.00258      3.17617     10.00000        -0.100111     -0.164581     -0.027289
      0.00050     -0.02360     14.87130         0.000454      0.005268      0.003844
      2.75065      3.17617     10.00000         0.330586     -0.044516     -0.169910
      1.38783      2.39604     14.90210         0.002581      0.000972      0.002171
     11.00282      6.35659     12.48610         0.001173     -0.001592     -0.008267
     13.77300      6.38170     12.41529        -0.003554     -0.000825      0.005348
      2.74475      4.78835     14.97423         0.005813     -0.004576     -0.016131
     12.37790      5.55830     10.00000         0.199416      0.320701     -0.281860
      9.63478      2.41823     14.97264         0.001123      0.002293     -0.003191
      2.75443     -0.00754     14.92229         0.000433     -0.004284     -0.004275
      8.25636     -0.03029     14.93923         0.005486      0.004038     -0.003801
      6.87256      2.40495     14.98943         0.005960      0.002880     -0.007320
      8.28746      1.58337     12.45964        -0.005076      0.003413      0.008053
      4.13276      3.98418     12.43114         0.001640      0.004000     -0.008468
      9.62155      7.11225     15.05289         0.003865      0.008927     -0.011179
      9.60833      8.74578     12.38928         0.007448     -0.004579     -0.007908
      5.51597      4.79389     14.94049        -0.001444     -0.003080     -0.003839
      8.22020      6.34570     12.41376         0.000420     -0.004894      0.009015
      6.87661      0.79404     10.00000        -0.068272     -0.289446     -0.232755
      5.49341      1.59526     12.43955         0.000851      0.005377      0.001075
      5.50550     -0.01385     14.99198         0.005401      0.002909     -0.010890
      8.25194      3.17617     10.00000        -0.209400      0.088820     -0.150140
      9.62726      5.55830     10.00000        -0.183169      0.269150     -0.265537
      4.13621      7.14625     14.77177         0.001958      0.003100      0.007286
      6.87838      3.97938     12.43385        -0.001639      0.004235     -0.007667
      4.12597      0.79404     10.00000         0.012913     -0.084003      0.127428
      5.50129      3.17617     10.00000        -0.013161      0.204418      0.167312
      6.84075      8.74108     12.39536         0.003642      0.001542      0.002056
      6.87661      5.55830     10.00000        -0.293392      0.115514      0.116342
      5.50939      6.36973     12.37523         0.001585     -0.010266     -0.008897
      8.25194      7.94043     10.00000        -0.055614      0.004884      0.086386
     15.15243      8.74191     12.37758        -0.004652      0.000657     -0.003743
      4.13129      2.39201     14.83347         0.001243      0.005729     -0.008650
      5.50129      7.94043     10.00000        -0.087721     -0.102176      0.113642
      6.87174      7.13745     14.76071         0.002849      0.015657      0.004936
     12.37105      3.95691     12.48356        -0.000250      0.011977     -0.006160
     11.01498      1.59368     12.44298         0.001679      0.006280      0.002059
     12.39421      8.74011     12.43643        -0.000287     -0.001190     -0.010979
     13.75323      7.94043     10.00000         0.133055      0.046294      0.138404
     11.00077      4.77537     14.84401         0.005573     -0.001428      0.003418
      8.25372      4.77810     14.80318         0.003173      0.002595      0.012645
     11.00258      7.94043     10.00000         0.003418      0.086998      0.202422
      9.62726      0.79404     10.00000         0.041380     -0.307375      0.214022
      9.63780      3.95597     12.46933        -0.000034      0.008390      0.004931
      2.72879      1.58124     12.43762         0.002863      0.009446     -0.001844
      4.12597      5.55830     10.00000         0.257217      0.125817      0.123015
     12.38717      7.14101     14.83445         0.005570      0.007073      0.003890
    total drift:                                0.012892      0.014723     -0.034561

  FREE ENERGIE OF THE ION-ELECTRON SYSTEM (eV)
  free  energy   TOTEN  =      -192.45757585 eV

  energy  without entropy=     -192.20971078  energy(sigma->0) =     -192.33364332

 d Force = 0.7609303E-03[ 0.431E-03, 0.109E-02]  d Energy = 0.7940839E-03-0.332E-04
 d Force =-0.1924270E+02[-0.192E+02,-0.193E+02]  d Ewald  =-0.1924270E+02 0.421E-05

 stress matrix after NEB project (eV)
      0.00000      0.00000      0.00000
      0.00000      0.00000      0.00000
      0.00000      0.00000      0.00000
  FORCES: max atom, RMS     0.017746    0.008171
  FORCE total and by dimension    0.056611    0.016131
  Stress total and by dimension    0.000000    0.000000
 Conjugate gradient step on ions:
 trial-energy change:   -0.000794  1 .order   -0.000761   -0.001090   -0.000431
  (g-gl).g = 0.351E-03      g.g   = 0.369E-03  gl.gl    = 0.626E-03
 g(Force)  = 0.369E-03   g(Stress)= 0.000E+00 ortho     = 0.600E-04
 gamma     =   0.56003
 trial     =   2.70564
 opt step  =   3.93652  (harmonic =   4.47713) maximal distance =0.00573596
 next E    =  -192.457677   (d E  =  -0.00090)

 reached required accuracy - stopping structural energy minimisation