 vasp.5.4.1 24Jun15 (build Mar 14 2019 10:18:33) complex

 executed on INTEL-19.0.2+OPENMPI date 2022.07.15  15:42:32

 INCAR:
 POTCAR:    PAW_PBE Au 04Oct2007
 POTCAR:    PAW_PBE Pd 04Jan2005
 POTCAR:    PAW_PBE Au 04Oct2007

 POTCAR:    PAW_PBE Pd 04Jan2005

 Optimization of the real space projectors (new method)

 maximal supplied QI-value         = 15.12
 optimisation between [QCUT,QGAM] = [ 10.13, 20.41] = [ 28.73,116.64] Ry
 Optimized for a Real-space Cutoff    1.51 Angstroem

   l    n(q)    QCUT    max X(q) W(low)/X(q) W(high)/X(q)  e(spline)
   2      8    10.129    60.898    0.46E-03    0.46E-03    0.14E-06
   2      8    10.129    58.894    0.47E-03    0.47E-03    0.14E-06
   0      9    10.129   109.617    0.16E-03    0.11E-03    0.54E-07
   0      9    10.129    75.026    0.15E-03    0.11E-03    0.52E-07
   1      9    10.129    16.344    0.96E-04    0.15E-03    0.14E-06
   1      9    10.129    10.160    0.81E-04    0.12E-03    0.11E-06
 Optimization of the real space projectors (new method)

 maximal supplied QI-value         = 14.36
 optimisation between [QCUT,QGAM] = [ 10.20, 20.39] = [ 29.12,116.47] Ry
 Optimized for a Real-space Cutoff    1.51 Angstroem

   l    n(q)    QCUT    max X(q) W(low)/X(q) W(high)/X(q)  e(spline)
   2      8    10.197    59.108    0.26E-03    0.14E-03    0.96E-07
   2      8    10.197    58.101    0.27E-03    0.14E-03    0.98E-07
   0      9    10.197   102.235    0.54E-04    0.60E-05    0.72E-07
   0      9    10.197    58.388    0.52E-04    0.60E-05    0.68E-07
   1      9    10.197    22.191    0.18E-03    0.25E-03    0.79E-07
   1      9    10.197    15.590    0.15E-03    0.21E-03    0.69E-07
  PAW_PBE Au 04Oct2007                  :
  PAW_PBE Pd 04Jan2005                  :

 POSCAR: Au Pd
  positions in cartesian coordinates
 exchange correlation table for  LEXCH =        8
   RHO(1)=    0.500       N(1)  =     2000
   RHO(2)=  100.500       N(2)  =     4000

 VTST: version 3.2, (02/03/18)

 CHAIN: initializing optimizer

 OPT: Using VASP Conjugate-Gradient optimizer
 CHAIN: Read ICHAIN            0

 POSCAR: Au Pd
  positions in cartesian coordinates

 ion  position               nearest neighbor table
   1  0.250  0.750  0.592-   7 2.75  11 2.75   9 2.75  12 2.75  14 2.75  18 2.75  15 2.75  32 2.75
                            39 2.75
   2  0.583  0.583  0.408-  27 2.75   8 2.75   5 2.75  29 2.75  47 2.75  40 2.75  31 2.75  30 2.75
                            11 2.75
   3  0.500  0.250  0.592-   4 2.75  26 2.75  10 2.75  14 2.75   9 2.75  35 2.75  33 2.75  41 2.75
                            36 2.75
   4  0.417  0.417  0.500-  43 2.75   3 2.75   9 2.75  26 2.75  36 2.75  39 2.75  11 2.75  42 2.75
                            30 2.75  40 2.75  14 2.75  47 2.75
   5  0.583  0.833  0.408-  38 2.75  31 2.75  37 2.75   2 2.75  44 2.75   8 2.75  16 2.75  27 2.75
                            25 2.75
   6  0.833  0.083  0.408-  46 2.75  20 2.75  29 2.75  16 2.75  47 2.75  34 2.75  37 2.75  17 2.75
                            26 2.75
   7  0.167  0.917  0.500-  20 2.75   1 2.75  18 2.75  11 2.75  13 2.75  39 2.75  46 2.75  17 2.75
                            25 2.75  34 2.75   8 2.75  12 2.75
   8  0.333  0.833  0.408-  25 2.75   2 2.75  34 2.75  40 2.75  44 2.75   5 2.75  20 2.75  11 2.75
                             7 2.75
   9  0.250  0.500  0.592-  39 2.75   4 2.75   1 2.75  15 2.75   3 2.75  41 2.75  14 2.75  21 2.75
                            42 2.75
  10  0.750  0.000  0.592-  26 2.75  17 2.75   3 2.75  15 2.75  33 2.75  48 2.75  35 2.75  18 2.75
                            38 2.75
  11  0.417  0.667  0.500-  40 2.75  14 2.75   1 2.75   4 2.75  25 2.75  30 2.75   7 2.75  39 2.75
                            27 2.75   8 2.75   2 2.75  32 2.75
  12  0.250  0.000  0.592-  13 2.75  25 2.75  24 2.75   1 2.75  32 2.75  41 2.75  35 2.75  18 2.75
                             7 2.75
  13  0.167  0.167  0.500-  34 2.75  12 2.75  24 2.75   7 2.75  25 2.75  23 2.75  42 2.75  36 2.75
                            46 2.75  19 2.75  44 2.75  41 2.75
  14  0.500  0.500  0.592-  11 2.75  30 2.75   1 2.75   3 2.75  32 2.75  33 2.75  28 2.75   9 2.75
                             4 2.75
  15  0.000  0.750  0.592-  17 2.75  39 2.75   9 2.75  18 2.75  21 2.75  10 2.75   1 2.75  48 2.75
                            22 2.75
  16  0.833  0.833  0.408-  17 2.75   6 2.75  31 2.75  37 2.75  45 2.75  20 2.75   5 2.75  22 2.75
                            38 2.75
  17  0.917  0.917  0.500-  16 2.75  15 2.75  10 2.75  22 2.75  26 2.75  39 2.75  46 2.75   7 2.75
                            38 2.75   6 2.75  20 2.75  18 2.75
  18  0.000  0.000  0.592-  46 2.75   7 2.75  15 2.75  24 2.75  33 2.75   1 2.75  10 2.75  12 2.75
                            17 2.75
  19  0.083  0.333  0.408-  42 2.75  34 2.75  31 2.75  44 2.75  45 2.75  29 2.75  43 2.75  13 2.75
                            23 2.75
  20  0.083  0.833  0.408-   7 2.75   6 2.75  34 2.75  40 2.75  45 2.75  16 2.75   8 2.75  39 2.75
                            17 2.75
  21  0.000  0.500  0.592-  22 2.75  42 2.75  24 2.75  41 2.75  15 2.75  48 2.75  28 2.75   9 2.75
                            23 2.75
  22  0.917  0.667  0.500-  31 2.75  21 2.75  48 2.75  17 2.75  38 2.75  42 2.75  23 2.75  27 2.75
                            39 2.75  16 2.75  45 2.75  15 2.75
  23  0.917  0.417  0.500-  29 2.75  24 2.75  28 2.75  27 2.75  22 2.75  13 2.75  46 2.75  42 2.75
                            30 2.75  31 2.75  21 2.75  19 2.75
  24  0.000  0.250  0.592-  23 2.75  13 2.75  18 2.75  21 2.75  12 2.75  28 2.75  33 2.75  41 2.75
                            46 2.75
  25  0.417  0.917  0.500-   8 2.75  32 2.75  12 2.75  13 2.75  27 2.75  11 2.75  36 2.75   7 2.75
                            38 2.75  44 2.75  35 2.75   5 2.75
  26  0.667  0.167  0.500-  37 2.75  10 2.75   3 2.75  17 2.75  30 2.75   4 2.75  38 2.75  36 2.75
                            46 2.75  47 2.75  33 2.75   6 2.75
  27  0.667  0.667  0.500-   2 2.75  28 2.75  32 2.75  23 2.75  30 2.75  25 2.75  38 2.75  11 2.75
                            22 2.75   5 2.75  31 2.75  48 2.75
  28  0.750  0.500  0.592-  27 2.75  23 2.75  24 2.75  32 2.75  33 2.75  48 2.75  14 2.75  21 2.75
                            30 2.75
  29  0.833  0.333  0.408-  23 2.75   6 2.75   2 2.75  31 2.75  34 2.75  19 2.75  47 2.75  46 2.75
                            30 2.75
  30  0.667  0.417  0.500-  47 2.75  33 2.75  14 2.75  27 2.75  11 2.75  46 2.75  26 2.75  23 2.75
                             4 2.75   2 2.75  29 2.75  28 2.75
  31  0.833  0.583  0.408-  22 2.75  16 2.75  19 2.75   5 2.75  29 2.75   2 2.75  45 2.75  23 2.75
                            27 2.75
  32  0.500  0.750  0.592-  25 2.75  27 2.75  12 2.75  14 2.75  28 2.75  35 2.75   1 2.75  48 2.75
                            11 2.75
  33  0.750  0.250  0.592-  30 2.75  46 2.75  18 2.75  28 2.75  10 2.75  14 2.75  24 2.75   3 2.75
                            26 2.75
  34  0.083  0.083  0.408-  13 2.75   8 2.75  19 2.75  20 2.75  29 2.75   6 2.75  44 2.75   7 2.75
                            46 2.75
  35  0.500  0.000  0.592-  36 2.75  38 2.75   3 2.75  32 2.75  41 2.75  48 2.75  12 2.75  10 2.75
                            25 2.75
  36  0.417  0.167  0.500-  44 2.75  35 2.75  41 2.75  38 2.75  25 2.75  42 2.75   4 2.75  26 2.75
                            13 2.75  43 2.75  37 2.75   3 2.75
  37  0.583  0.083  0.408-  26 2.75  16 2.75   5 2.75  43 2.75  47 2.75  44 2.75   6 2.75  38 2.75
                            36 2.75
  38  0.667  0.917  0.500-   5 2.75  48 2.75  35 2.75  27 2.75  22 2.75  36 2.75  26 2.75  25 2.75
                            17 2.75  37 2.75  16 2.75  10 2.75
  39  0.167  0.667  0.500-  45 2.75   9 2.75  15 2.75   7 2.75  17 2.75  42 2.75   4 2.75  11 2.75
                            22 2.75  20 2.75   1 2.75  40 2.75
  40  0.333  0.583  0.408-  11 2.75   8 2.75  20 2.75  43 2.75  47 2.75  45 2.75   2 2.75   4 2.75
                            39 2.75
  41  0.250  0.250  0.592-  42 2.75  36 2.75  21 2.75  35 2.75   9 2.75  12 2.75  24 2.75   3 2.75
                            13 2.75
  42  0.167  0.417  0.500-  19 2.75  41 2.75  21 2.75  22 2.75  36 2.75  39 2.75  13 2.75  23 2.75
                             4 2.75  45 2.75  43 2.75   9 2.75
  43  0.333  0.333  0.408-   4 2.75  37 2.75  40 2.75  44 2.75  45 2.75  19 2.75  47 2.75  36 2.75
                            42 2.75
  44  0.333  0.083  0.408-  36 2.75   8 2.75  19 2.75   5 2.75  43 2.75  37 2.75  34 2.75  25 2.75
                            13 2.75
  45  0.083  0.583  0.408-  39 2.75  19 2.75  20 2.75  16 2.75  43 2.75  40 2.75  31 2.75  42 2.75
                            22 2.75
  46  0.917  0.167  0.500-   6 2.75  18 2.75  33 2.75   7 2.75  23 2.75  30 2.75  17 2.75  13 2.75
                            26 2.75  29 2.75  24 2.75  34 2.75
  47  0.583  0.333  0.408-  30 2.75   6 2.75   2 2.75  37 2.75  40 2.75  29 2.75  43 2.75  26 2.75
                             4 2.75
  48  0.750  0.750  0.592-  38 2.75  22 2.75  10 2.75  28 2.75  35 2.75  21 2.75  15 2.75  32 2.75
                            27 2.75

  LATTYP: Found a hexagonal cell.
 ALAT       =    11.0025815153
 C/A-ratio  =     2.2260035120

  Lattice vectors:

 A1 = (   5.5012907576,  -9.5285150994,   0.0000000000)
 A2 = ( -11.0025815153,   0.0000000000,   0.0000000000)
 A3 = (   0.0000000000,   0.0000000000, -24.4917850943)

Analysis of symmetry for initial positions (statically):
 Subroutine PRICEL returns:
 Original cell was already a primitive cell.

 Routine SETGRP: Setting up the symmetry group for a
 hexagonal supercell.

 Subroutine GETGRP returns: Found  1 space group operations
 (whereof  1 operations were pure point group operations)
 out of a pool of 24 trial point group operations.

The static configuration has the point symmetry C_1 .

Analysis of symmetry for dynamics (positions and initial velocities):
 Subroutine PRICEL returns:
 Original cell was already a primitive cell.

 Routine SETGRP: Setting up the symmetry group for a
 hexagonal supercell.

 Subroutine GETGRP returns: Found  1 space group operations
 (whereof  1 operations were pure point group operations)
 out of a pool of 24 trial point group operations.

The dynamic configuration has the point symmetry C_1 .

 KPOINTS: Automatic mesh

Automatic generation of k-mesh.
Space group operators:
 irot       det(A)        alpha          n_x          n_y          n_z        tau_x        tau_y        tau_z
    1     1.000000     0.000000     1.000000     0.000000     0.000000     0.000000     0.000000     0.000000

 Subroutine IBZKPT returns following result:

 Found      6 irreducible k-points:

 Following reciprocal coordinates:
            Coordinates               Weight
  0.250000  0.250000  0.000000     16.000000
  0.000000  0.250000  0.000000     16.000000
 -0.250000  0.000000  0.000000     16.000000
 -0.250000  0.250000  0.000000     16.000000
  0.500000 -0.250000  0.000000     16.000000
 -0.250000  0.500000  0.000000     16.000000

 Following cartesian coordinates:
            Coordinates               Weight
  0.022722  0.013119  0.000000     16.000000
  0.000000  0.026237  0.000000     16.000000
[...]

[...]

----------------------------------------- Iteration   27(  10)  ---------------------------------------

 eigenvalue-minimisations  :  1941
 total energy-change (2. order) : 0.6699047E-06  (-0.1029159E-06)
 number of electron     503.9999370 magnetization
 augmentation part      197.2654195 magnetization

 DIPCOR: dipole corrections for dipol
 direction  3 min pos     1,
 dipolmoment           0.000000      0.000000     -0.000335 electrons x Angstroem
 Tr[quadrupol]    -10243.834863

 energy correction for charged system         0.000000 eV
 dipol+quadrupol energy correction           -0.000000 eV
 added-field ion interaction          0.000178 eV  (added to PSCEN)

  free energy =  -0.192472257612E+03  energy without entropy=  -0.192216497332E+03

 average (electrostatic) potential at core
  the test charge radii are     1.2098  1.1199
  (the norm of the test charge is              1.0000)
       1 -74.0304       2 -73.8509       3 -73.9472       4 -74.1102       5 -73.9080
       6 -73.8848       7 -74.1733       8 -73.9113       9 -74.0414      10 -73.9746
      11 -74.1809      12 -73.9286      13 -74.1686      14 -73.9573      15 -74.0645
      16 -73.9239      17 -74.1294      18 -74.0212      19 -73.8504      20 -73.9682
      21 -73.9566      22 -74.1779      23 -74.1335      24 -73.9541      25 -80.9306
      26 -81.0037      27 -80.9388      28 -80.8339      29 -80.8370      30 -80.9653
      31 -80.8018      32 -80.8964      33 -80.8340      34 -80.8558      35 -80.8664
      36 -80.9946      37 -80.8702      38 -80.9856      39 -80.8866      40 -80.8845
      41 -80.8075      42 -80.8904      43 -80.8757      44 -80.8585      45 -80.8682
      46 -80.9426      47 -80.8405      48 -80.8400

 E-fermi :  -1.1019     XC(G=0):  -4.5482     alpha+bet : -4.5211

[...]

 k-point     6 :      -0.2500    0.5000    0.0000
  band No.  band energies     occupation
      1      -8.4945      2.00000
      2      -8.0897      2.00000
      3      -7.8297      2.00000
      4      -7.5304      2.00000
      5      -7.2030      2.00000
      6      -7.0914      2.00000
      7      -7.0121      2.00000
      8      -6.9512      2.00000
      9      -6.7908      2.00000
     10      -6.7571      2.00000
     11      -6.7448      2.00000
     12      -6.6929      2.00000
     13      -6.6409      2.00000
     14      -6.6108      2.00000
     15      -6.5577      2.00000
     16      -6.5237      2.00000
     17      -6.5067      2.00000
     18      -6.4511      2.00000
     19      -6.4429      2.00000
     20      -6.3914      2.00000
     21      -6.3565      2.00000
     22      -6.3404      2.00000
     23      -6.3130      2.00000
     24      -6.2872      2.00000
     25      -6.2721      2.00000
     26      -6.2438      2.00000
     27      -6.2235      2.00000
     28      -6.1669      2.00000
     29      -6.1550      2.00000
     30      -6.1277      2.00000
     31      -6.1087      2.00000
     32      -6.0700      2.00000
     33      -6.0427      2.00000
     34      -6.0306      2.00000
     35      -6.0018      2.00000
     36      -5.9906      2.00000
     37      -5.9738      2.00000
     38      -5.9408      2.00000
     39      -5.8978      2.00000
     40      -5.8769      2.00000
     41      -5.8650      2.00000
     42      -5.8417      2.00000
     43      -5.7988      2.00000
     44      -5.7587      2.00000
     45      -5.7398      2.00000
     46      -5.6996      2.00000
     47      -5.6520      2.00000
     48      -5.6447      2.00000
     49      -5.6187      2.00000
     50      -5.5636      2.00000
     51      -5.5509      2.00000
     52      -5.5134      2.00000
     53      -5.4774      2.00000
     54      -5.4641      2.00000
     55      -5.4106      2.00000
     56      -5.3817      2.00000
     57      -5.3712      2.00000
     58      -5.3618      2.00000
     59      -5.3155      2.00000
     60      -5.2909      2.00000
[...]
    292       4.1803      0.00000
    293       4.4343      0.00000
    294       4.4951      0.00000
    295       4.5989      0.00000
    296       4.6213      0.00000
    297       4.6677      0.00000
    298       4.7693      0.00000
    299       4.8318      0.00000
    300       4.8722      0.00000
    301       4.9583      0.00000
    302       5.0553      0.00000
    303       5.0813      0.00000
    304       5.1148      0.00000
    305       5.1434      0.00000
    306       5.2363      0.00000

 soft charge-density along one line, spin component           1
         0         1         2         3         4         5         6         7         8         9
 total charge-density along one line

------------------------ aborting loop because EDIFF is reached ----------------------------------------

 VOLUME and BASIS-vectors are now :
  energy-cutoff  :      400.00
  volume of cell :     2567.68
      direct lattice vectors                 reciprocal lattice vectors
    11.002581515  0.000000000  0.000000000     0.090887761 -0.052474073  0.000000000
     5.501290758  9.528515099  0.000000000     0.000000000  0.104948147  0.000000000
     0.000000000  0.000000000 24.491785094     0.000000000  0.000000000  0.040830017

  length of vectors
    11.002581515 11.002581515 24.491785094     0.104948147  0.104948147  0.040830017

 FORCES acting on ions
    electron-ion (+dipol)            ewald-force                    non-local-force                 convergence-correction
   -.187E+02 -.545E-01 -.225E+04   0.187E+02 0.173E-01 0.225E+04   0.839E-02 0.417E-01 -.127E+00   -.429E-03 0.957E-02 -.174E-03
   0.104E+02 0.182E+02 0.230E+04   -.100E+02 -.194E+02 -.230E+04   -.345E+00 0.110E+01 -.372E+00   -.270E-02 0.516E-02 0.334E-02
   -.101E+01 0.134E+02 -.225E+04   0.622E+00 -.140E+02 0.225E+04   0.389E+00 0.540E+00 0.232E+00   0.899E-03 -.989E-03 -.392E-02
   0.429E+00 -.517E+01 -.251E+02   -.828E+00 0.486E+01 0.234E+02   0.399E+00 0.315E+00 0.169E+01   -.520E-02 -.746E-03 -.809E-02
   -.317E+01 -.124E+02 0.227E+04   0.348E+01 0.128E+02 -.227E+04   -.304E+00 -.380E+00 -.515E+00   -.719E-03 0.892E-03 0.182E-01
   0.302E+01 -.132E+02 0.226E+04   -.294E+01 0.143E+02 -.226E+04   -.787E-01 -.113E+01 -.204E+00   -.918E-03 -.611E-02 -.135E-01
   0.417E+01 0.651E+01 -.821E+00   -.439E+01 -.620E+01 0.248E+00   0.212E+00 -.303E+00 0.591E+00   0.271E-02 -.131E-02 -.751E-02
   0.109E+02 -.639E+01 0.231E+04   -.109E+02 0.707E+01 -.231E+04   0.113E-01 -.665E+00 0.131E-01   -.206E-02 -.870E-03 0.329E-02
   0.213E+01 0.824E+01 -.224E+04   -.250E+01 -.858E+01 0.224E+04   0.368E+00 0.343E+00 0.147E+00   0.164E-02 0.807E-04 -.169E-01
   0.190E+02 0.403E+01 -.222E+04   -.196E+02 -.389E+01 0.222E+04   0.595E+00 -.141E+00 0.110E+00   -.321E-02 -.736E-02 0.904E-02
   0.631E+01 -.540E+01 0.381E+02   -.589E+01 0.555E+01 -.380E+02   -.427E+00 -.153E+00 -.612E-01   0.743E-02 0.742E-02 -.533E-02
   -.245E+02 0.470E+01 -.226E+04   0.258E+02 -.492E+01 0.226E+04   -.125E+01 0.227E+00 -.231E+00   0.226E-02 -.243E-02 0.365E-02
   0.108E+02 0.270E+00 -.475E+01   -.102E+02 -.470E+00 0.431E+01   -.672E+00 0.207E+00 0.439E+00   0.580E-02 -.197E-02 -.485E-02
   -.245E+02 -.234E+01 -.226E+04   0.258E+02 0.212E+01 0.226E+04   -.133E+01 0.195E+00 0.515E-01   0.171E-02 0.400E-02 0.184E-02
   0.189E+02 -.304E+01 -.225E+04   -.190E+02 0.286E+01 0.225E+04   0.183E+00 0.185E+00 -.720E-01   -.104E-02 0.638E-02 0.149E-02
   -.504E+01 0.686E-01 0.231E+04   0.448E+01 -.341E+00 -.231E+04   0.545E+00 0.271E+00 0.689E-02   -.205E-02 0.418E-02 0.211E-02
   -.560E+01 0.343E+01 0.223E+02   0.554E+01 -.297E+01 -.222E+02   0.673E-01 -.465E+00 -.937E-01   -.314E-02 -.702E-02 -.601E-02
   0.440E+01 -.780E+01 -.226E+04   -.465E+01 0.872E+01 0.226E+04   0.242E+00 -.916E+00 -.110E+00   0.970E-02 -.511E-02 0.339E-02
   -.117E+02 0.263E+01 0.228E+04   0.118E+02 -.238E+01 -.228E+04   -.146E+00 -.232E+00 0.198E-01   0.426E-02 -.229E-02 -.975E-02
   -.221E+01 0.850E+01 0.226E+04   0.247E+01 -.931E+01 -.226E+04   -.255E+00 0.820E+00 0.264E+00   0.437E-02 -.441E-02 -.126E-01
   0.191E+02 -.608E+01 -.225E+04   -.193E+02 0.579E+01 0.225E+04   0.291E+00 0.284E+00 -.466E-01   -.438E-02 0.149E-02 0.265E-02
   -.111E+02 -.554E+01 0.305E+02   0.110E+02 0.552E+01 -.310E+02   0.409E-01 0.274E-01 0.475E+00   -.535E-02 0.203E-02 0.196E-02
   -.109E+02 0.742E+01 0.239E+02   0.984E+01 -.723E+01 -.244E+02   0.107E+01 -.199E+00 0.544E+00   0.306E-02 0.259E-02 0.282E-02
   0.543E+01 -.109E+02 -.226E+04   -.592E+01 0.112E+02 0.226E+04   0.496E+00 -.301E+00 -.800E-01   0.519E-02 0.646E-03 0.294E-02
   0.822E+01 0.499E+01 0.600E+02   -.742E+01 -.483E+01 -.596E+02   -.807E+00 -.168E+00 -.389E+00   0.985E-03 -.564E-02 0.772E-02
   -.349E+01 0.635E+01 0.344E+01   0.357E+01 -.618E+01 -.388E+01   -.794E-01 -.158E+00 0.431E+00   -.112E-01 -.407E-02 -.311E-03
   0.418E+01 -.316E+01 0.797E+02   -.418E+01 0.339E+01 -.788E+02   -.638E-02 -.232E+00 -.914E+00   0.127E-02 0.851E-02 0.129E-01
   0.407E+01 -.169E+02 -.194E+04   -.453E+01 0.171E+02 0.194E+04   0.461E+00 -.223E+00 0.157E+01   0.572E-02 0.787E-02 0.253E-02
   -.408E+00 0.788E+01 0.199E+04   0.200E+00 -.798E+01 -.199E+04   0.208E+00 0.102E+00 -.165E+01   0.114E-02 -.854E-03 -.549E-02
   0.390E+01 -.362E+01 0.234E+02   -.349E+01 0.301E+01 -.233E+02   -.420E+00 0.599E+00 -.442E-01   0.140E-02 0.731E-02 0.226E-02
   -.955E+01 0.122E+02 0.201E+04   0.942E+01 -.123E+02 -.201E+04   0.135E+00 0.122E+00 -.152E+01   -.507E-02 0.178E-02 0.942E-02
   -.245E+02 -.176E+01 -.192E+04   0.251E+02 0.185E+01 0.191E+04   -.612E+00 -.102E+00 0.189E+01   0.501E-02 0.712E-02 0.248E-02
   -.952E+00 -.116E+02 -.192E+04   0.120E+01 0.116E+02 0.192E+04   -.254E+00 -.186E-01 0.172E+01   -.965E-03 0.715E-04 -.490E-03
   -.111E+01 -.961E+01 0.197E+04   0.105E+01 0.999E+01 -.197E+04   0.570E-01 -.383E+00 -.152E+01   0.185E-02 -.479E-02 -.853E-02
   0.143E+01 0.181E+02 -.192E+04   -.165E+01 -.182E+02 0.192E+04   0.225E+00 0.179E+00 0.180E+01   -.127E-04 -.583E-02 0.171E-02
   -.917E+00 -.250E+01 0.234E+01   0.945E+00 0.213E+01 -.274E+01   -.171E-01 0.390E+00 0.404E+00   -.330E-02 -.300E-02 -.270E-02
   0.809E+00 -.210E+02 0.197E+04   -.109E+01 0.213E+02 -.196E+04   0.285E+00 -.371E+00 -.205E+01   -.415E-02 -.283E-02 0.190E-02
   -.855E+01 0.267E+01 0.541E+02   0.788E+01 -.231E+01 -.536E+02   0.686E+00 -.357E+00 -.477E+00   -.558E-02 -.374E-02 0.103E-01
   0.197E+00 -.835E+01 -.347E+02   -.385E+00 0.796E+01 0.338E+02   0.184E+00 0.389E+00 0.956E+00   0.306E-02 0.270E-02 -.520E-03
   0.138E+02 0.168E+02 0.197E+04   -.142E+02 -.170E+02 -.197E+04   0.421E+00 0.262E+00 -.161E+01   -.810E-03 0.140E-03 -.151E-02
   -.341E+01 0.910E+01 -.196E+04   0.369E+01 -.924E+01 0.195E+04   -.273E+00 0.149E+00 0.168E+01   -.553E-02 -.467E-02 -.559E-02
   0.191E+01 -.498E+01 -.103E+02   -.135E+01 0.494E+01 0.994E+01   -.556E+00 0.364E-01 0.386E+00   -.206E-02 -.464E-02 -.126E-01
   -.112E+01 -.341E+01 0.199E+04   0.120E+01 0.321E+01 -.198E+04   -.805E-01 0.208E+00 -.192E+01   -.210E-02 -.298E-02 -.141E-01
   -.280E+01 -.191E+02 0.199E+04   0.314E+01 0.190E+02 -.198E+04   -.347E+00 0.992E-01 -.173E+01   0.149E-02 -.243E-02 0.218E-02
   -.132E+02 0.149E+02 0.196E+04   0.134E+02 -.151E+02 -.196E+04   -.244E+00 0.271E+00 -.178E+01   0.286E-02 -.259E-02 -.122E-01
   -.402E+01 0.109E+02 0.400E+01   0.341E+01 -.104E+02 -.439E+01   0.614E+00 -.431E+00 0.407E+00   0.786E-02 -.991E-03 -.388E-02
   0.142E+02 0.369E+01 0.198E+04   -.141E+02 -.377E+01 -.198E+04   -.901E-01 0.819E-01 -.175E+01   -.466E-02 0.456E-02 -.909E-02
   0.247E+02 -.415E+00 -.192E+04   -.252E+02 0.652E+00 0.192E+04   0.492E+00 -.238E+00 0.173E+01   -.608E-02 0.566E-02 0.801E-02
   -.935E-01 0.141E+00 0.171E+01   -.274E-12 -.604E-12 0.182E-11   0.833E-01 -.122E+00 -.171E+01   -.101E-02 0.479E-03 -.476E-01

 POSITION                                       TOTAL-FORCE (eV/Angst)
      6.89997      7.13545     14.82193        -0.013408      0.013758     -0.005084
      9.63540      5.51879      9.67525         0.002444     -0.008696      0.003766
      6.86361      2.35311     14.77356         0.000058      0.006814     -0.002390
      6.86177      3.96248     12.27012        -0.004040     -0.003976      0.000224
     11.01173      7.95138      9.70147         0.007327     -0.001423     -0.006337
      9.62965      0.83738      9.72229        -0.002401      0.004637      0.003583
      6.87287      8.74569     12.24515         0.004068      0.000993      0.011305
      8.25899      7.95536      9.64086        -0.005836      0.013212      0.007031
      5.49473      4.74464     14.79853         0.000646      0.001432      0.009788
      8.22177     -0.01194     14.73912        -0.011796     -0.008479     -0.000566
      8.26288      6.35879     12.21118        -0.002671      0.000829      0.010244
      2.79652     -0.01612     14.80360        -0.012864     -0.003132     -0.008940
      2.77133      1.59304     12.25537         0.001766      0.005896      0.003801
      8.30166      4.74957     14.78599        -0.003914     -0.014787      0.005889
      4.10413      7.13767     14.81809         0.009562      0.005861     -0.002929
     13.75064      7.93855      9.64235        -0.009023      0.001992      0.011641
     15.11074      8.75590     12.23105         0.002787     -0.009750      0.009455
     -0.00478      0.01323     14.84884         0.003795     -0.008739     -0.014401
      2.77268      3.18318      9.73211         0.001729      0.009114     -0.007502
      5.50911      7.92647      9.70731         0.004840      0.000489     -0.004979
      2.72561      4.75512     14.78148        -0.004266     -0.013481     -0.002375
     13.74388      6.36132     12.21514        -0.001089      0.006188      0.004834
     12.34954      3.97258     12.22148         0.010395     -0.000022      0.010035
      1.35942      2.38657     14.79742         0.008495      0.002012      0.000091
      9.64049      8.74256     12.17908        -0.008570     -0.011789      0.005524
      8.24082      1.58712     12.25154        -0.005335      0.001982     -0.003440
     10.98722      6.36513     12.15987        -0.003365      0.009108     -0.014700
     10.99684      4.77406     14.57276         0.004497     -0.000481     -0.001935
     11.00897      3.17485      9.85626         0.001993     -0.006894      0.001355
      9.61577      3.96695     12.22676        -0.005897     -0.005131     -0.000877
     12.39173      5.54796      9.81086         0.003967     -0.000790     -0.006708
      9.65356      7.14009     14.54247         0.003905     -0.002317     -0.000483
      9.62829      2.37228     14.58353        -0.007742      0.007528     -0.005157
      1.38704      0.81105      9.86523        -0.000681     -0.002926      0.013203
      5.49540     -0.02021     14.54907         0.004682     -0.010191      0.010702
      5.51349      1.58409     12.25188         0.008276      0.012881      0.000542
      6.86583      0.82041      9.89676        -0.003174     -0.001337     -0.001072
     12.35458      8.74615     12.19144         0.011535     -0.001917     -0.000352
      5.49213      6.35958     12.29112        -0.000634      0.001452     -0.014396
      6.86603      5.54603      9.89190         0.005771      0.005375     -0.014207
      4.12781      2.36330     14.63082        -0.001948     -0.000485     -0.011014
      4.12693      3.97706     12.26945         0.004691     -0.007080      0.010707
      5.52317      3.17625      9.89722        -0.000672      0.003040      0.009145
      4.14863      0.81194      9.86688        -0.000436     -0.000171     -0.001763
      4.14641      5.54680      9.89625        -0.000473      0.003342      0.006474
     10.97322      1.59958     12.24584         0.010137     -0.001590      0.005806
      8.24711      3.17994      9.89340        -0.004385      0.003253     -0.007285
     12.34985      7.14615     14.54275        -0.002746      0.004397     -0.016250
    total drift:                               -0.011262      0.018648     -0.043584

  FREE ENERGIE OF THE ION-ELECTRON SYSTEM (eV)
  free  energy   TOTEN  =      -192.47225761 eV

  energy  without entropy=     -192.21649733  energy(sigma->0) =     -192.34437747

 d Force = 0.2124653E-03[ 0.818E-04, 0.343E-03]  d Energy = 0.2282204E-03-0.158E-04
 d Force =-0.9098031E+01[-0.908E+01,-0.911E+01]  d Ewald  =-0.9098032E+01 0.183E-05

 stress matrix after NEB project (eV)
      0.00000      0.00000      0.00000
      0.00000      0.00000      0.00000
      0.00000      0.00000      0.00000
  FORCES: max atom, RMS     0.019872    0.012009
  FORCE total and by dimension    0.083198    0.016250
  Stress total and by dimension    0.000000    0.000000

 reached required accuracy - stopping structural energy minimisation