 vasp.5.4.1 24Jun15 (build Mar 14 2019 10:18:33) complex

 executed on INTEL-19.0.2+OPENMPI date 2023.01.23  11:30:42

 INCAR:
 POTCAR:    PAW_PBE Au 04Oct2007
 POTCAR:    PAW_PBE O 08Apr2002
 POTCAR:    PAW_PBE Pd 04Jan2005
 POTCAR:    PAW_PBE Au 04Oct2007

 POTCAR:    PAW_PBE O 08Apr2002

 POTCAR:    PAW_PBE Pd 04Jan2005

 Optimization of the real space projectors (new method)

 maximal supplied QI-value         = 15.12
 optimisation between [QCUT,QGAM] = [ 10.13, 20.41] = [ 28.73,116.64] Ry
 Optimized for a Real-space Cutoff    1.51 Angstroem

   l    n(q)    QCUT    max X(q) W(low)/X(q) W(high)/X(q)  e(spline)
   2      8    10.129    60.898    0.46E-03    0.46E-03    0.14E-06
   2      8    10.129    58.894    0.47E-03    0.47E-03    0.14E-06
   0      9    10.129   109.617    0.16E-03    0.11E-03    0.54E-07
   0      9    10.129    75.026    0.15E-03    0.11E-03    0.52E-07
   1      9    10.129    16.344    0.96E-04    0.15E-03    0.14E-06
   1      9    10.129    10.160    0.81E-04    0.12E-03    0.11E-06
 Optimization of the real space projectors (new method)

[...]

   l    n(q)    QCUT    max X(q) W(low)/X(q) W(high)/X(q)  e(spline)
   0      8    10.150    20.381    0.22E-03    0.32E-03    0.29E-06
   0      8    10.150    15.268    0.23E-03    0.35E-03    0.30E-06
   1      8    10.150     5.964    0.46E-03    0.53E-03    0.21E-06
   1      8    10.150     5.382    0.38E-03    0.45E-03    0.19E-06
 Optimization of the real space projectors (new method)

 maximal supplied QI-value         = 14.36
 optimisation between [QCUT,QGAM] = [ 10.20, 20.39] = [ 29.12,116.47] Ry
 Optimized for a Real-space Cutoff    1.51 Angstroem

   l    n(q)    QCUT    max X(q) W(low)/X(q) W(high)/X(q)  e(spline)
   2      8    10.197    59.108    0.26E-03    0.14E-03    0.96E-07
   2      8    10.197    58.101    0.27E-03    0.14E-03    0.98E-07
   0      9    10.197   102.235    0.54E-04    0.60E-05    0.72E-07
   0      9    10.197    58.388    0.52E-04    0.60E-05    0.68E-07
   1      9    10.197    22.191    0.18E-03    0.25E-03    0.79E-07
   1      9    10.197    15.590    0.15E-03    0.21E-03    0.69E-07
  PAW_PBE Au 04Oct2007                  :
  PAW_PBE O 08Apr2002                   :
  PAW_PBE Pd 04Jan2005                  :

 POSCAR: Au  O Pd
  positions in direct lattice
  velocities in cartesian coordinates
 exchange correlation table for  LEXCH =        8
   RHO(1)=    0.500       N(1)  =     2000
   RHO(2)=  100.500       N(2)  =     4000

 VTST: version 3.2, (02/03/18)

 CHAIN: initializing optimizer

 OPT: Using VASP Conjugate-Gradient optimizer
 CHAIN: Read ICHAIN            0

 POSCAR: Au  O Pd
  positions in direct lattice
  velocities in cartesian coordinates

 ion  position               nearest neighbor table
   1  0.918  0.916  0.474-  47 2.72  23 2.73  54 2.73  51 2.74  46 2.75  53 2.76  13 2.79   2 2.89
                            15 2.90  52 2.91  50 2.93
   2  0.083  0.833  0.382-  10 2.75  15 2.75  22 2.75  35 2.75  12 2.75  52 2.75   1 2.89  54 2.92
                            23 3.04
   3  0.758  0.500  0.568-  31 2.15  40 2.72  11 2.74  49 2.76   8 2.79  42 2.83   9 2.87  43 2.87
                             7 2.87   4 2.89
   4  0.665  0.670  0.477-  16 2.71  53 2.74  55 2.77  47 2.78   7 2.79   9 2.81  40 2.83   3 2.89
                            44 2.93  17 2.95   5 2.96  43 3.30
   5  0.833  0.583  0.382-   6 2.75  44 2.75  48 2.75  52 2.75  17 2.75  10 2.75  47 2.91   7 2.92
                             4 2.96
   6  0.083  0.333  0.382-   5 2.75  10 2.75  35 2.75  45 2.75  34 2.75  48 2.75  37 2.88  36 2.90
                             7 2.91
   7  0.917  0.415  0.475-  51 2.74  37 2.76   9 2.79  36 2.79   4 2.79  47 2.80   3 2.87  11 2.88
                            48 2.90   6 2.91   5 2.92   8 2.97
   8  0.005  0.241  0.569-  25 2.11  49 2.68  50 2.73  33 2.73  38 2.76   3 2.79  51 2.82  37 2.95
                             7 2.97  11 2.99
   9  0.664  0.414  0.480-  56 2.69  46 2.71  55 2.77  51 2.79   7 2.79   4 2.81   3 2.87  49 2.88
                            19 3.00  17 3.04  48 3.04  42 3.11
  10  0.083  0.583  0.382-   2 2.75   6 2.75  34 2.75  52 2.75   5 2.75  22 2.75  36 2.87  47 2.89
                            23 3.08
  11  0.999  0.515  0.563-  25 2.25  24 2.64  40 2.67   3 2.74  47 2.75  36 2.85  38 2.87   7 2.88
                             8 2.99  14 3.04
  12  0.333  0.833  0.382-  17 2.75  22 2.75  35 2.75  45 2.75  44 2.75   2 2.75  16 2.84  54 2.92
                            55 3.29
  13  0.753  0.991  0.562-  32 2.22  40 2.65  20 2.73   1 2.79  53 2.79  18 2.81  50 2.82  46 2.88
                            49 2.89  14 2.94
  14  0.953  0.762  0.629-  28 1.95  27 1.97  40 2.82  13 2.94  11 3.04  50 3.28  41 3.44  24 3.49

  15  0.833  0.083  0.382-   2 2.75  19 2.75  48 2.75  52 2.75  35 2.75  39 2.75  46 2.85   1 2.90
                            51 3.00
  16  0.417  0.915  0.472-   4 2.71  37 2.75  54 2.75  53 2.76  55 2.77  33 2.77  21 2.81  12 2.84
                            44 2.84  45 2.86  20 2.91  43 3.40
  17  0.583  0.583  0.382-  12 2.75  19 2.75  44 2.75  48 2.75   5 2.75  22 2.75   4 2.95   9 3.04
                            55 3.29
  18  0.498  0.246  0.564-  30 2.15  38 2.69  20 2.70  24 2.76  13 2.81  21 2.84  42 2.85  56 2.88
                            49 2.88  46 2.90
  19  0.583  0.333  0.382-  15 2.75  17 2.75  22 2.75  39 2.75  34 2.75  48 2.75  46 2.86  56 2.91
                             9 3.00
  20  0.500  1.000  0.565-  43 2.64  18 2.70  33 2.71  38 2.73  13 2.73  40 2.74  53 2.89  16 2.91
                            21 2.94
  21  0.417  0.171  0.472-  36 2.74  46 2.75  56 2.76  53 2.77  37 2.78  16 2.81  34 2.82  18 2.84
                            39 2.84  38 2.86  45 2.86  20 2.94
  22  0.333  0.583  0.382-   2 2.75  12 2.75  19 2.75  34 2.75  10 2.75  17 2.75  56 2.88  23 3.06
                            55 3.30
  23  0.167  0.670  0.482-  54 2.70   1 2.73  55 2.74  56 2.75  36 2.77  47 2.77  24 2.78  41 2.97
                             2 3.04  22 3.06  10 3.08
  24  0.247  0.497  0.567-  26 2.12  11 2.64  38 2.72  18 2.76  23 2.78  41 2.78  36 2.86  42 2.87
                            56 2.90  14 3.49
  25  0.101  0.327  0.615-  38 1.99   8 2.11  11 2.25
  26  0.326  0.575  0.624-  41 2.01  42 2.01  24 2.12
  27  0.080  0.840  0.624-  14 1.97  41 2.01  50 2.04
  28  0.809  0.711  0.638-  14 1.95  40 1.97
  29  0.319  0.865  0.617-  33 1.95  43 1.96  41 2.07
  30  0.594  0.315  0.620-  42 1.97  49 1.99  18 2.15
  31  0.599  0.583  0.626-  43 1.97  42 2.05   3 2.15
  32  0.846  0.081  0.614-  49 1.95  50 1.97  13 2.22
  33  0.256  0.997  0.560-  29 1.95  20 2.71   8 2.73  38 2.74  54 2.74  50 2.75  16 2.77  37 2.78
                            43 2.80  41 2.83
  34  0.333  0.333  0.382-  10 2.75  22 2.75  39 2.75  45 2.75  19 2.75   6 2.75  21 2.82  36 2.87
                            56 2.93
  35  0.083  0.083  0.382-   2 2.75   6 2.75  12 2.75  48 2.75  45 2.75  15 2.75  37 2.86  54 2.93
                            51 2.98
  36  0.169  0.419  0.474-  21 2.74  56 2.74  47 2.76  23 2.77   7 2.79  37 2.81  11 2.85  38 2.85
                            24 2.86  10 2.87  34 2.87   6 2.90
  37  0.168  0.164  0.473-  51 2.73  54 2.74  16 2.75   7 2.76  21 2.78  33 2.78  36 2.81  38 2.84
                            45 2.86  35 2.86   6 2.88   8 2.95
  38  0.252  0.247  0.563-  25 1.99  18 2.69  24 2.72  20 2.73  33 2.74   8 2.76  37 2.84  36 2.85
                            21 2.86  11 2.87
  39  0.583  0.083  0.382-  19 2.75  34 2.75  44 2.75  52 2.75  45 2.75  15 2.75  21 2.84  53 2.86
                            46 2.87
  40  0.750  0.751  0.566-  28 1.97  13 2.65  43 2.66  11 2.67   3 2.72  20 2.74  14 2.82   4 2.83
                            47 2.88  53 2.90
  41  0.251  0.746  0.579-  27 2.01  26 2.01  29 2.07  50 2.70  42 2.77  24 2.78  55 2.78  33 2.83
                            43 2.96  23 2.97  54 3.16  14 3.44
  42  0.505  0.497  0.584-  30 1.97  26 2.01  31 2.05  49 2.76  41 2.77   3 2.83  18 2.85  24 2.87
                            55 2.90  43 2.95   9 3.11  56 3.26
  43  0.510  0.763  0.589-  29 1.96  31 1.97  20 2.64  40 2.66  33 2.80   3 2.87  42 2.95  41 2.96
                            55 3.12   4 3.30  16 3.40
  44  0.583  0.833  0.382-   5 2.75  17 2.75  39 2.75  45 2.75  12 2.75  52 2.75  16 2.84  53 2.87
                             4 2.93
  45  0.333  0.083  0.382-   6 2.75  12 2.75  34 2.75  44 2.75  39 2.75  35 2.75  16 2.86  37 2.86
                            21 2.86
  46  0.669  0.167  0.473-   9 2.71   1 2.75  51 2.75  21 2.75  53 2.76  56 2.79  15 2.85  19 2.86
                            39 2.87  13 2.88  18 2.90  49 3.08
  47  0.917  0.669  0.474-   1 2.72  53 2.73  11 2.75  36 2.76  23 2.77   4 2.78   7 2.80  40 2.88
                            52 2.88  10 2.89   5 2.91
  48  0.833  0.333  0.382-   5 2.75  15 2.75  17 2.75  35 2.75  19 2.75   6 2.75   7 2.90  51 3.01
                             9 3.04
  49  0.757  0.250  0.572-  32 1.95  30 1.99   8 2.68   3 2.76  42 2.76  50 2.82   9 2.88  18 2.88
                            13 2.89  51 2.90  46 3.08
  50  0.009  0.991  0.568-  32 1.97  27 2.04  41 2.70   8 2.73  33 2.75  49 2.82  13 2.82  54 2.87
                            51 2.87   1 2.93  14 3.28
  51  0.920  0.164  0.479-  54 2.73  37 2.73   1 2.74   7 2.74  46 2.75   9 2.79   8 2.82  50 2.87
                            49 2.90  35 2.98  15 3.00  48 3.01
  52  0.833  0.833  0.382-   5 2.75  10 2.75  15 2.75  39 2.75   2 2.75  44 2.75  53 2.86  47 2.88
                             1 2.91
  53  0.667  0.917  0.473-  47 2.73   4 2.74   1 2.76  46 2.76  16 2.76  21 2.77  13 2.79  52 2.86
                            39 2.86  44 2.87  20 2.89  40 2.90
  54  0.167  0.915  0.475-  23 2.70  51 2.73   1 2.73  37 2.74  33 2.74  16 2.75  55 2.77  50 2.87
                             2 2.92  12 2.92  35 2.93  41 3.16
  55  0.417  0.668  0.492-  23 2.74  56 2.75   4 2.77  16 2.77  54 2.77   9 2.77  41 2.78  42 2.90
                            43 3.12  12 3.29  17 3.29  22 3.30
  56  0.417  0.422  0.475-   9 2.69  36 2.74  23 2.75  55 2.75  21 2.76  46 2.79  18 2.88  22 2.88
                            24 2.90  19 2.91  34 2.93  42 3.26

  LATTYP: Found a hexagonal cell.
 ALAT       =    11.0025815153
 C/A-ratio  =     2.3805127059

  Lattice vectors:

 A1 = (   5.5012907576,  -9.5285150994,   0.0000000000)
 A2 = ( -11.0025815153,   0.0000000000,   0.0000000000)
 A3 = (   0.0000000000,   0.0000000000, -26.1917850943)

Analysis of symmetry for initial positions (statically):
 Subroutine PRICEL returns:
 Original cell was already a primitive cell.

 Routine SETGRP: Setting up the symmetry group for a
 hexagonal supercell.

 Subroutine GETGRP returns: Found  1 space group operations
 (whereof  1 operations were pure point group operations)
 out of a pool of 24 trial point group operations.

The static configuration has the point symmetry C_1 .

Analysis of symmetry for dynamics (positions and initial velocities):
 Subroutine PRICEL returns:
 Original cell was already a primitive cell.

[...]

The dynamic configuration has the point symmetry C_1 .

[...]
      6     -19.8690      2.00000
      7     -19.5093      2.00000
      8     -19.3014      2.00000
      9      -9.0032      2.00000
     10      -8.6202      2.00000
     11      -8.5361      2.00000
     12      -8.4567      2.00000
     13      -8.1250      2.00000
     14      -7.9624      2.00000
     15      -7.9011      2.00000
     16      -7.8766      2.00000
     17      -7.8296      2.00000
     18      -7.7787      2.00000
     19      -7.7128      2.00000
     20      -7.6791      2.00000
     21      -7.5902      2.00000
     22      -7.5661      2.00000
     23      -7.5432      2.00000
     24      -7.4671      2.00000
     25      -7.4309      2.00000
     26      -7.3759      2.00000
     27      -7.3103      2.00000
     28      -7.2759      2.00000
     29      -7.2457      2.00000
     30      -7.2395      2.00000
     31      -7.2017      2.00000
     32      -7.1423      2.00000
     33      -7.1294      2.00000
     34      -7.0911      2.00000
     35      -7.0480      2.00000
     36      -7.0296      2.00000
     37      -7.0122      2.00000
     38      -6.9857      2.00000
     39      -6.9655      2.00000
     40      -6.9615      2.00000
     41      -6.9243      2.00000
     42      -6.8977      2.00000
     43      -6.8786      2.00000
     44      -6.8453      2.00000
     45      -6.8173      2.00000
     46      -6.8100      2.00000
     47      -6.7720      2.00000
     48      -6.7414      2.00000
     49      -6.7151      2.00000
     50      -6.6964      2.00000
     51      -6.6708      2.00000
     52      -6.6486      2.00000
     53      -6.6130      2.00000
     54      -6.5901      2.00000
     55      -6.5799      2.00000
     56      -6.5418      2.00000
     57      -6.5226      2.00000
     58      -6.4977      2.00000
     59      -6.4663      2.00000
     60      -6.4520      2.00000
[...]
    322       3.8529      0.00000
    323       4.0173      0.00000
    324       4.1787      0.00000
    325       4.2619      0.00000
    326       4.4087      0.00000
    327       4.4712      0.00000
    328       4.5066      0.00000
    329       4.6606      0.00000
    330       4.7115      0.00000
    331       4.8006      0.00000
    332       4.8720      0.00000
    333       4.9646      0.00000
    334       5.0619      0.00000
    335       5.0744      0.00000
    336       5.1414      0.00000

 soft charge-density along one line, spin component           1
         0         1         2         3         4         5         6         7         8         9
 total charge-density along one line

------------------------ aborting loop because EDIFF is reached ----------------------------------------

 VOLUME and BASIS-vectors are now :
  energy-cutoff  :      400.00
  volume of cell :     2745.90
      direct lattice vectors                 reciprocal lattice vectors
    11.002581515  0.000000000  0.000000000     0.090887761 -0.052474073  0.000000000
     5.501290758  9.528515099  0.000000000     0.000000000  0.104948147  0.000000000
     0.000000000  0.000000000 26.191785094     0.000000000  0.000000000  0.038179910

  length of vectors
    11.002581515 11.002581515 26.191785094     0.104948147  0.104948147  0.038179910

 FORCES acting on ions
    electron-ion (+dipol)            ewald-force                    non-local-force                 convergence-correction
   -.531E+01 0.477E+02 0.299E+03   0.504E+01 -.478E+02 -.298E+03   0.275E+00 0.126E+00 -.351E+00   -.143E-01 -.115E-01 -.194E-01
   -.796E+01 0.191E+01 0.249E+04   0.820E+01 -.137E+01 -.249E+04   -.209E+00 -.439E+00 0.231E+00   -.282E-02 -.401E-02 -.216E-01
   -.794E+02 0.631E+02 -.185E+04   0.806E+02 -.638E+02 0.185E+04   -.115E+01 0.714E+00 0.109E+01   -.348E-01 0.174E-01 0.223E-01
   0.313E+02 -.916E+01 0.297E+03   -.309E+02 0.104E+02 -.297E+03   -.375E+00 -.121E+01 -.629E+00   -.889E-02 -.523E-02 -.187E-02
   0.109E+02 -.130E+02 0.250E+04   -.112E+02 0.137E+02 -.251E+04   0.198E+00 -.426E+00 0.282E+00   -.380E-02 0.108E-02 -.116E-01
   0.168E+01 0.224E+02 0.251E+04   -.156E+01 -.236E+02 -.251E+04   -.674E-01 0.758E+00 -.721E+00   0.438E-02 -.470E-03 -.189E-01
   -.673E+01 0.114E+02 0.342E+03   0.682E+01 -.117E+02 -.342E+03   -.780E-01 0.295E+00 0.146E+00   -.783E-02 0.161E-01 -.104E-01
   0.109E+02 0.307E+02 -.197E+04   -.123E+02 -.323E+02 0.197E+04   0.144E+01 0.150E+01 0.104E+01   -.143E-01 0.267E-01 0.116E-01
   0.180E+02 -.160E+02 0.243E+03   -.190E+02 0.153E+02 -.242E+03   0.100E+01 0.743E+00 -.103E+01   -.905E-02 0.203E-01 0.807E-02
   -.118E+02 -.824E+01 0.249E+04   0.119E+02 0.816E+01 -.249E+04   0.406E-01 0.134E+00 -.153E+00   0.459E-03 -.571E-02 -.131E-01
   -.506E+02 -.327E+02 -.176E+04   0.511E+02 0.344E+02 0.176E+04   -.444E+00 -.167E+01 0.247E+01   -.191E-02 0.146E-01 0.794E-02
   -.477E+00 0.130E+02 0.248E+04   0.421E+00 -.124E+02 -.248E+04   0.363E-01 -.465E+00 -.241E+00   0.108E-01 -.580E-03 -.198E-01
   0.744E+02 0.280E+02 -.173E+04   -.766E+02 -.289E+02 0.173E+04   0.228E+01 0.950E+00 0.187E+01   -.170E-01 0.112E-02 0.845E-02
   -.149E+02 0.600E+02 -.285E+04   0.141E+02 -.602E+02 0.285E+04   0.826E+00 0.305E+00 0.555E+00   -.929E-02 -.162E-01 0.166E-01
   -.114E+02 -.771E+01 0.251E+04   0.115E+02 0.828E+01 -.251E+04   -.121E-01 -.380E+00 -.255E+00   -.584E-02 0.340E-02 -.232E-01
   0.302E+01 0.269E+02 0.384E+03   -.364E+01 -.271E+02 -.384E+03   0.604E+00 0.221E+00 0.395E+00   0.186E-01 -.152E-01 -.183E-01
   0.150E+02 -.663E+01 0.246E+04   -.146E+02 0.659E+01 -.246E+04   -.366E+00 0.548E-01 0.216E+00   0.272E-02 -.396E-03 -.874E-02
   0.106E+03 0.694E+02 -.183E+04   -.108E+03 -.703E+02 0.183E+04   0.196E+01 0.833E+00 0.147E+01   0.114E-01 0.358E-01 0.167E-01
   -.260E+01 -.522E+01 0.250E+04   0.222E+01 0.478E+01 -.250E+04   0.325E+00 0.331E+00 -.390E+00   -.471E-02 0.127E-02 -.137E-01
   0.204E+01 -.602E+02 -.195E+04   -.238E+01 0.596E+02 0.195E+04   0.329E+00 0.592E+00 -.915E-02   0.831E-02 -.787E-02 0.104E-01
   0.351E+01 0.434E+01 0.397E+03   -.346E+01 -.336E+01 -.397E+03   -.621E-01 -.992E+00 0.179E+00   0.882E-02 0.640E-02 -.214E-01
   -.144E+02 -.105E+02 0.246E+04   0.143E+02 0.972E+01 -.246E+04   0.147E+00 0.706E+00 0.103E+00   0.587E-03 -.810E-02 -.118E-01
   0.297E+02 -.244E+02 0.150E+03   -.292E+02 0.243E+02 -.149E+03   -.506E+00 0.639E-01 -.104E+01   0.144E-03 -.221E-01 -.891E-02
   0.114E+03 0.404E+02 -.183E+04   -.116E+03 -.415E+02 0.182E+04   0.150E+01 0.106E+01 0.179E+01   0.413E-01 0.431E-03 0.244E-01
   -.211E+02 0.170E+02 -.169E+04   0.217E+02 -.134E+02 0.171E+04   -.617E+00 -.358E+01 -.272E+02   -.115E-02 0.114E-01 0.136E-01
   0.805E+02 0.646E+02 -.172E+04   -.844E+02 -.661E+02 0.174E+04   0.383E+01 0.146E+01 -.282E+02   0.219E-01 -.267E-01 -.420E-02
   -.298E+02 -.341E+02 -.163E+04   0.405E+02 0.414E+02 0.165E+04   -.107E+02 -.736E+01 -.207E+02   -.882E-02 -.154E-01 0.205E-01
   0.113E+03 0.375E+02 -.174E+04   -.131E+03 -.460E+02 0.176E+04   0.181E+02 0.846E+01 -.217E+02   -.529E-02 -.469E-02 0.983E-02
   -.256E+02 -.121E+03 -.168E+04   0.205E+02 0.126E+03 0.170E+04   0.509E+01 -.484E+01 -.275E+02   0.175E-01 -.194E-01 0.120E-01
   0.603E+02 0.843E+02 -.171E+04   -.631E+02 -.901E+02 0.173E+04   0.282E+01 0.576E+01 -.281E+02   -.588E-02 0.375E-01 -.401E-02
   -.695E+02 0.348E+02 -.173E+04   0.722E+02 -.395E+02 0.176E+04   -.272E+01 0.469E+01 -.270E+02   -.205E-01 -.873E-02 -.105E-01
   0.211E+02 -.195E+02 -.166E+04   -.243E+02 0.164E+02 0.169E+04   0.321E+01 0.311E+01 -.282E+02   -.111E-01 0.834E-02 0.149E-01
   -.345E+02 -.126E+03 -.153E+04   0.345E+02 0.125E+03 0.153E+04   0.110E-01 0.777E+00 -.377E+00   0.191E-01 -.125E-01 0.859E-02
   -.462E+01 0.714E+01 0.229E+04   0.447E+01 -.730E+01 -.229E+04   0.112E+00 0.269E-01 -.178E+01   0.735E-03 -.475E-02 -.127E-01
   0.261E+01 -.735E+01 0.228E+04   -.254E+01 0.765E+01 -.227E+04   -.887E-01 -.211E+00 -.173E+01   0.477E-02 0.539E-02 -.272E-01
   0.157E+00 -.841E+01 0.327E+03   0.364E+00 0.867E+01 -.327E+03   -.533E+00 -.266E+00 -.503E+00   0.106E-01 0.502E-02 -.112E-01
   0.525E+01 -.858E+01 0.342E+03   -.553E+01 0.762E+01 -.341E+03   0.261E+00 0.947E+00 -.242E+00   0.125E-01 0.110E-01 -.278E-01
   -.753E+02 0.702E+02 -.167E+04   0.747E+02 -.698E+02 0.167E+04   0.558E+00 -.471E+00 -.845E+00   0.266E-01 0.124E-01 0.535E-02
   0.102E+02 0.124E+02 0.230E+04   -.106E+02 -.126E+02 -.230E+04   0.177E+00 0.112E+00 -.207E+01   -.814E-02 0.130E-02 -.166E-01
   0.307E+01 -.588E+02 -.153E+04   -.357E+01 0.583E+02 0.153E+04   0.510E+00 0.588E+00 -.208E+01   -.119E-01 -.122E-01 0.137E-01
   0.383E+02 -.135E+02 -.169E+04   -.387E+02 0.135E+02 0.169E+04   0.317E+00 0.332E-01 -.186E+01   0.169E-01 -.616E-01 0.222E-01
   0.991E+00 0.173E+02 -.181E+04   -.102E+01 -.177E+02 0.181E+04   0.356E-01 0.344E+00 -.283E+01   -.563E-02 0.702E-02 0.272E-01
   -.114E+03 -.109E+03 -.201E+04   0.114E+03 0.108E+03 0.202E+04   0.956E+00 0.415E+00 -.198E+01   0.459E-02 -.453E-01 0.150E-01
   -.748E+01 -.927E+01 0.229E+04   0.790E+01 0.982E+01 -.229E+04   -.206E+00 -.396E+00 -.175E+01   -.932E-04 0.360E-02 -.123E-01
   -.363E+01 0.164E+01 0.230E+04   0.388E+01 -.149E+01 -.230E+04   -.119E+00 -.777E-01 -.185E+01   0.878E-02 0.119E-02 -.193E-01
   -.359E+01 -.676E+01 0.342E+03   0.357E+01 0.666E+01 -.342E+03   0.263E-01 0.848E-01 0.359E+00   -.118E-01 0.122E-01 -.110E-01
   -.399E+02 -.262E+02 0.277E+03   0.399E+02 0.264E+02 -.276E+03   0.310E-02 -.141E+00 -.511E+00   -.421E-02 -.315E-02 -.123E-01
   0.554E+01 0.143E+02 0.227E+04   -.528E+01 -.147E+02 -.227E+04   -.266E+00 0.213E+00 -.119E+01   -.415E-03 0.504E-02 -.152E-01
   -.808E+02 -.356E+02 -.169E+04   0.807E+02 0.345E+02 0.169E+04   0.370E-01 0.104E+01 -.195E+01   -.216E-01 0.452E-01 0.170E-01
   -.690E+02 -.161E+02 -.157E+04   0.686E+02 0.168E+02 0.157E+04   0.455E+00 -.689E+00 -.112E+01   -.728E-02 -.385E-03 0.117E-01
   0.143E+01 0.644E+00 0.249E+03   -.107E+01 -.100E+01 -.247E+03   -.357E+00 0.335E+00 -.130E+01   -.834E-02 0.193E-01 -.192E-01
   0.151E+02 -.695E+01 0.229E+04   -.157E+02 0.674E+01 -.228E+04   0.368E+00 0.216E+00 -.191E+01   -.713E-02 0.371E-03 -.148E-01
   -.260E+01 0.735E+01 0.348E+03   0.329E+01 -.787E+01 -.348E+03   -.681E+00 0.521E+00 0.163E+00   -.799E-02 -.339E-02 -.142E-01
   0.323E+01 0.226E+02 0.307E+03   -.342E+01 -.222E+02 -.306E+03   0.190E+00 -.410E+00 -.125E+01   0.504E-02 -.156E-01 -.229E-01
   -.113E+02 -.263E+01 -.379E+01   0.104E+02 0.246E+01 0.517E+01   0.850E+00 0.190E+00 -.139E+01   0.142E-01 -.254E-01 0.120E-01
   -.122E+02 -.224E+02 0.313E+03   0.122E+02 0.226E+02 -.313E+03   -.505E-01 -.148E+00 0.827E-01   0.358E-02 0.403E-02 0.649E-02
   -.292E+02 -.145E+02 0.232E+03   0.302E-12 0.359E-12 0.193E-11   0.293E+02 0.145E+02 -.232E+03   -.756E-02 -.217E-01 -.141E+00

 POSITION                                       TOTAL-FORCE (eV/Angst)
     15.14300      8.73113     12.42544        -0.002234     -0.001289     -0.001117
      5.50129      7.94043     10.00000         0.032645      0.096187     -0.273578
     11.09286      4.76420     14.87734        -0.002322     -0.002274     -0.001746
     10.99557      6.38012     12.48434        -0.000708     -0.001038     -0.002605
     12.37790      5.55830     10.00000        -0.108483      0.283261     -0.340782
      2.75065      3.17617     10.00000         0.053111     -0.421181     -0.189115
     12.37299      3.95246     12.44028        -0.000170      0.001923     -0.003174
      1.37953      2.29480     14.90101        -0.004698     -0.004951      0.000871
      9.59045      3.94931     12.57647        -0.000030     -0.001954     -0.002590
      4.12597      5.55830     10.00000         0.080494      0.051244     -0.140330
     13.82227      4.90590     14.74559        -0.003644     -0.004883      0.001623
      8.25194      7.94043     10.00000        -0.010950      0.129015     -0.145977
     13.73373      9.43881     14.72741        -0.003803     -0.004086      0.001781
     14.68186      7.26169     16.46791        -0.004018     -0.005382      0.002864
      9.62726      0.79404     10.00000         0.161177      0.193465     -0.211658
      9.62324      8.71507     12.36325        -0.002305      0.001916     -0.001070
      9.62726      5.55830     10.00000         0.046304      0.016613      0.003082
      6.82968      2.34321     14.77107        -0.002118     -0.000574      0.000309
      8.25194      3.17617     10.00000        -0.057708     -0.110295     -0.083459
     11.00447      9.52509     14.79792        -0.005118     -0.003486     -0.002373
      5.52658      1.62458     12.35452        -0.002019     -0.001360      0.001062
      6.87661      5.55830     10.00000         0.005374     -0.064918     -0.037952
      5.52893      6.38686     12.61496        -0.000993     -0.000161      0.009733
      5.45392      4.73163     14.84187        -0.004212     -0.001454      0.003900
      2.90948      3.11143     16.10462        -0.001498     -0.003994      0.001775
      6.75308      5.47949     16.34332         0.002065     -0.003082      0.000744
      5.49728      7.99952     16.33345        -0.006524     -0.004665      0.002998
     12.81134      6.77729     16.70590        -0.004134      0.003216      0.001230
      8.26750      8.24446     16.16439        -0.003541     -0.002716     -0.002347
      8.27285      3.00278     16.22838         0.001273      0.000632     -0.000097
      9.80273      5.55538     16.40710        -0.002630     -0.008738      0.004688
      9.75113      0.77278     16.09423        -0.003830      0.002655     -0.003995
      8.29402      9.49638     14.66906         0.000856      0.001714     -0.000284
      5.50129      3.17617     10.00000        -0.033488     -0.130272      0.093052
      1.37532      0.79404     10.00000        -0.009870      0.094675      0.425250
      4.15969      3.99381     12.40337        -0.002144      0.002240     -0.006552
      2.75205      1.56544     12.39022        -0.002880      0.001553      0.001097
      4.13659      2.35683     14.74012        -0.000027     -0.000925     -0.006414
      6.87661      0.79404     10.00000        -0.205211     -0.118047      0.061515
     12.38839      7.15907     14.82286        -0.005957     -0.002724      0.008708
      6.86262      7.10376     15.16876        -0.002906     -0.003888      0.002159
      8.29448      4.73864     15.28678         0.004508      0.002780      0.003002
      9.80447      7.26568     15.43603        -0.006088     -0.004887      0.003149
     11.00258      7.94043     10.00000         0.215612      0.157808      0.144319
      4.12597      0.79404     10.00000         0.137826      0.077288      0.100968
      8.28007      1.58664     12.38052        -0.001410     -0.002498     -0.003053
     13.77093      6.37842     12.42111        -0.000579     -0.005026      0.011194
     11.00258      3.17617     10.00000        -0.003433     -0.196124      0.320739
      9.70279      2.38262     14.98942        -0.001531     -0.000910     -0.007977
      5.55028      9.44182     14.88940        -0.004010     -0.004435     -0.001379
     11.02691      1.56351     12.54261        -0.002878     -0.001262      0.003849
     13.75323      7.94043     10.00000        -0.218777      0.009401      0.260675
     12.38757      8.73554     12.38368        -0.000722     -0.003332     -0.006006
      6.87410      8.72351     12.45139        -0.001861      0.001447      0.000049
      8.25770      6.36385     12.88259        -0.001582     -0.002766     -0.004734
      6.90196      4.01665     12.43125         0.001801      0.000540      0.003982
    total drift:                                0.071382     -0.044468      0.009543

  FREE ENERGIE OF THE ION-ELECTRON SYSTEM (eV)
  free  energy   TOTEN  =      -232.40977222 eV

  energy  without entropy=     -232.17373968  energy(sigma->0) =     -232.29175595

 d Force = 0.1206913E-03[ 0.566E-04, 0.185E-03]  d Energy = 0.1238539E-03-0.316E-05
 d Force = 0.1171202E+01[ 0.117E+01, 0.117E+01]  d Ewald  = 0.1171203E+01-0.870E-06

 stress matrix after NEB project (eV)
      0.00000      0.00000      0.00000
      0.00000      0.00000      0.00000
      0.00000      0.00000      0.00000
  FORCES: max atom, RMS     0.012284    0.005179
  FORCE total and by dimension    0.038756    0.011194
  Stress total and by dimension    0.000000    0.000000
 Steepest descent step on ions:
 trial-energy change:   -0.000124  1 .order   -0.000121   -0.000185   -0.000057
  (g-gl).g = 0.185E-03      g.g   = 0.185E-03  gl.gl    = 0.000E+00
 g(Force)  = 0.185E-03   g(Stress)= 0.000E+00 ortho     = 0.000E+00
 gamma     =   0.00000
 trial     =   1.00000
 opt step  =   1.44138  (harmonic =   1.44138) maximal distance =0.00102859
 next E    =  -232.409782   (d E  =  -0.00013)

 reached required accuracy - stopping structural energy minimisation