 vasp.5.4.1 24Jun15 (build Mar 14 2019 10:18:33) complex

 executed on INTEL-19.0.2+OPENMPI date 2022.07.11  19:57:17

 INCAR:
 POTCAR:    PAW_PBE Au 04Oct2007
 POTCAR:    PAW_PBE Pd 04Jan2005
 POTCAR:    PAW_PBE Au 04Oct2007

 POTCAR:    PAW_PBE Pd 04Jan2005

 Optimization of the real space projectors (new method)

 maximal supplied QI-value         = 15.12
 optimisation between [QCUT,QGAM] = [ 10.13, 20.41] = [ 28.73,116.64] Ry
 Optimized for a Real-space Cutoff    1.51 Angstroem

   l    n(q)    QCUT    max X(q) W(low)/X(q) W(high)/X(q)  e(spline)
   2      8    10.129    60.898    0.46E-03    0.46E-03    0.14E-06
   2      8    10.129    58.894    0.47E-03    0.47E-03    0.14E-06
   0      9    10.129   109.617    0.16E-03    0.11E-03    0.54E-07
   0      9    10.129    75.026    0.15E-03    0.11E-03    0.52E-07
   1      9    10.129    16.344    0.96E-04    0.15E-03    0.14E-06
   1      9    10.129    10.160    0.81E-04    0.12E-03    0.11E-06
 Optimization of the real space projectors (new method)

 maximal supplied QI-value         = 14.36
 optimisation between [QCUT,QGAM] = [ 10.20, 20.39] = [ 29.12,116.47] Ry
 Optimized for a Real-space Cutoff    1.51 Angstroem

   l    n(q)    QCUT    max X(q) W(low)/X(q) W(high)/X(q)  e(spline)
   2      8    10.197    59.108    0.26E-03    0.14E-03    0.96E-07
   2      8    10.197    58.101    0.27E-03    0.14E-03    0.98E-07
   0      9    10.197   102.235    0.54E-04    0.60E-05    0.72E-07
   0      9    10.197    58.388    0.52E-04    0.60E-05    0.68E-07
   1      9    10.197    22.191    0.18E-03    0.25E-03    0.79E-07
   1      9    10.197    15.590    0.15E-03    0.21E-03    0.69E-07
  PAW_PBE Au 04Oct2007                  :
  PAW_PBE Pd 04Jan2005                  :

 POSCAR: Au Pd
  positions in cartesian coordinates
 exchange correlation table for  LEXCH =        8
   RHO(1)=    0.500       N(1)  =     2000
   RHO(2)=  100.500       N(2)  =     4000

 VTST: version 3.2, (02/03/18)

 CHAIN: initializing optimizer

 OPT: Using VASP Conjugate-Gradient optimizer
 CHAIN: Read ICHAIN            0

 POSCAR: Au Pd
  positions in cartesian coordinates

 ion  position               nearest neighbor table
   1  0.083  0.083  0.408-  19 2.75  21 2.75  32 2.75  40 2.75  43 2.75  42 2.75  26 2.75  13 2.75
                            31 2.75
   2  0.833  0.833  0.408-  41 2.75  26 2.75  29 2.75  11 2.75  47 2.75  33 2.75  40 2.75  37 2.75
                            12 2.75
   3  0.750  0.500  0.592-  30 2.75  24 2.75  23 2.75   4 2.75  25 2.75  17 2.75   7 2.75  20 2.75
                            28 2.75
   4  0.750  0.250  0.592-  28 2.75  31 2.75   7 2.75  18 2.75   3 2.75   5 2.75   8 2.75  23 2.75
                            27 2.75
   5  0.750  0.000  0.592-  27 2.75  41 2.75  17 2.75  22 2.75   4 2.75   8 2.75  39 2.75  18 2.75
                            12 2.75
   6  0.417  0.917  0.500-  43 2.75  25 2.75  44 2.75  30 2.75  19 2.75  10 2.75  48 2.75  12 2.75
                            13 2.75  42 2.75  33 2.75  39 2.75
   7  0.500  0.500  0.592-  48 2.75  28 2.75  16 2.75  25 2.75   4 2.75   8 2.75   3 2.75  14 2.75
                             9 2.75
   8  0.500  0.250  0.592-   9 2.75  27 2.75   5 2.75  14 2.75   7 2.75  39 2.75   4 2.75  46 2.75
                            10 2.75
   9  0.417  0.417  0.500-  35 2.75   8 2.75  14 2.75  15 2.75  27 2.75  10 2.75  48 2.75  28 2.75
                            34 2.75  45 2.75   7 2.75  38 2.75
  10  0.417  0.167  0.500-  42 2.75  39 2.75  46 2.75  34 2.75   6 2.75   9 2.75  12 2.75  19 2.75
                            27 2.75  35 2.75   8 2.75  11 2.75
  11  0.583  0.083  0.408-  27 2.75   2 2.75  33 2.75  35 2.75  38 2.75  26 2.75  42 2.75  12 2.75
                            10 2.75
  12  0.667  0.917  0.500-  33 2.75  17 2.75  39 2.75  30 2.75  10 2.75  37 2.75  27 2.75   6 2.75
                            41 2.75  11 2.75   2 2.75   5 2.75
  13  0.167  0.917  0.500-  40 2.75  16 2.75  18 2.75  19 2.75  31 2.75  15 2.75  48 2.75  41 2.75
                             6 2.75   1 2.75  44 2.75  43 2.75
  14  0.250  0.500  0.592-  15 2.75   9 2.75   8 2.75  16 2.75  22 2.75  46 2.75   7 2.75  20 2.75
                            34 2.75
  15  0.167  0.667  0.500-  47 2.75  14 2.75  22 2.75  13 2.75  34 2.75  41 2.75   9 2.75  37 2.75
                            48 2.75  40 2.75  16 2.75  45 2.75
  16  0.250  0.750  0.592-  13 2.75  48 2.75  14 2.75  18 2.75  44 2.75   7 2.75  22 2.75  25 2.75
                            15 2.75
  17  0.750  0.750  0.592-  12 2.75  37 2.75   3 2.75  20 2.75   5 2.75  39 2.75  22 2.75  25 2.75
                            30 2.75
  18  0.000  0.000  0.592-  31 2.75  13 2.75  16 2.75  22 2.75  23 2.75   4 2.75   5 2.75  44 2.75
                            41 2.75
  19  0.167  0.167  0.500-   1 2.75  44 2.75  23 2.75   6 2.75  24 2.75  34 2.75  13 2.75  10 2.75
                            31 2.75  21 2.75  42 2.75  46 2.75
  20  0.000  0.500  0.592-  37 2.75  34 2.75  23 2.75  17 2.75  22 2.75  46 2.75   3 2.75  14 2.75
                            24 2.75
  21  0.083  0.333  0.408-  34 2.75  29 2.75   1 2.75  42 2.75  47 2.75  32 2.75  35 2.75  19 2.75
                            24 2.75
  22  0.000  0.750  0.592-  41 2.75  15 2.75   5 2.75  18 2.75  20 2.75  14 2.75  17 2.75  16 2.75
                            37 2.75
  23  0.000  0.250  0.592-  24 2.75  19 2.75   3 2.75  20 2.75  18 2.75  44 2.75   4 2.75  46 2.75
                            31 2.75
  24  0.917  0.417  0.500-  32 2.75  23 2.75   3 2.75  30 2.75  31 2.75  19 2.75  37 2.75  34 2.75
                            28 2.75  29 2.75  20 2.75  21 2.75
  25  0.500  0.750  0.592-   6 2.75  30 2.75   7 2.75   3 2.75  39 2.75  44 2.75  17 2.75  16 2.75
                            48 2.75
  26  0.833  0.083  0.408-  31 2.75   2 2.75  32 2.75  38 2.75  40 2.75   1 2.75  11 2.75  41 2.75
                            27 2.75
  27  0.667  0.167  0.500-  11 2.75   5 2.75   8 2.75   9 2.75  12 2.75  28 2.75  41 2.75  31 2.75
                            10 2.75  38 2.75   4 2.75  26 2.75
  28  0.667  0.417  0.500-  38 2.75   4 2.75   7 2.75  30 2.75  31 2.75  27 2.75  48 2.75  24 2.75
                             9 2.75  36 2.75  32 2.75   3 2.75
  29  0.833  0.583  0.408-  37 2.75  21 2.75  32 2.75  33 2.75   2 2.75  36 2.75  47 2.75  24 2.75
                            30 2.75
  30  0.667  0.667  0.500-  36 2.75   3 2.75  25 2.75  24 2.75   6 2.75  28 2.75  12 2.75  37 2.75
                            48 2.75  33 2.75  17 2.75  29 2.75
  31  0.917  0.167  0.500-  26 2.75  18 2.75   4 2.75  24 2.75  13 2.75  28 2.75  41 2.75  19 2.75
                            27 2.75  32 2.75   1 2.75  23 2.75
  32  0.833  0.333  0.408-  24 2.75   1 2.75  26 2.75  29 2.75  36 2.75  21 2.75  38 2.75  31 2.75
                            28 2.75
  33  0.583  0.833  0.408-  12 2.75  11 2.75  29 2.75  36 2.75  42 2.75   2 2.75  43 2.75  30 2.75
                             6 2.75
  34  0.167  0.417  0.500-  21 2.75  46 2.75  20 2.75  10 2.75  15 2.75  37 2.75  19 2.75   9 2.75
                            24 2.75  47 2.75  35 2.75  14 2.75
  35  0.333  0.333  0.408-   9 2.75  11 2.75  42 2.75  45 2.75  47 2.75  38 2.75  21 2.75  10 2.75
                            34 2.75
  36  0.583  0.583  0.408-  30 2.75  32 2.75  33 2.75  38 2.75  43 2.75  29 2.75  45 2.75  28 2.75
                            48 2.75
  37  0.917  0.667  0.500-  29 2.75  20 2.75  17 2.75  24 2.75  12 2.75  34 2.75  41 2.75  15 2.75
                            30 2.75   2 2.75  22 2.75  47 2.75
  38  0.583  0.333  0.408-  28 2.75  26 2.75  11 2.75  36 2.75  45 2.75  32 2.75  35 2.75  27 2.75
                             9 2.75
  39  0.500  0.000  0.592-  10 2.75  12 2.75   8 2.75  17 2.75  25 2.75  46 2.75  44 2.75   5 2.75
                             6 2.75
  40  0.083  0.833  0.408-  13 2.75   1 2.75  26 2.75  45 2.75  47 2.75   2 2.75  43 2.75  15 2.75
                            41 2.75
  41  0.917  0.917  0.500-   2 2.75  22 2.75   5 2.75  15 2.75  27 2.75  31 2.75  37 2.75  13 2.75
                            12 2.75  26 2.75  18 2.75  40 2.75
  42  0.333  0.083  0.408-  10 2.75  21 2.75  33 2.75  35 2.75  43 2.75   1 2.75  11 2.75   6 2.75
                            19 2.75
  43  0.333  0.833  0.408-   6 2.75   1 2.75  36 2.75  42 2.75  45 2.75  33 2.75  40 2.75  48 2.75
                            13 2.75
  44  0.250  0.000  0.592-  19 2.75   6 2.75  16 2.75  23 2.75  25 2.75  46 2.75  39 2.75  18 2.75
                            13 2.75
  45  0.333  0.583  0.408-  48 2.75  38 2.75  40 2.75  43 2.75  35 2.75  47 2.75  36 2.75   9 2.75
                            15 2.75
  46  0.250  0.250  0.592-  34 2.75  10 2.75  20 2.75  14 2.75  39 2.75  44 2.75  23 2.75   8 2.75
                            19 2.75
  47  0.083  0.583  0.408-  15 2.75   2 2.75  21 2.75  35 2.75  40 2.75  29 2.75  45 2.75  34 2.75
                            37 2.75
  48  0.417  0.667  0.500-  45 2.75   7 2.75  16 2.75  13 2.75   6 2.75  28 2.75   9 2.75  30 2.75
                            15 2.75  43 2.75  25 2.75  36 2.75

  LATTYP: Found a hexagonal cell.
 ALAT       =    11.0025815153
 C/A-ratio  =     2.2260035120

  Lattice vectors:

 A1 = (   5.5012907576,  -9.5285150994,   0.0000000000)
 A2 = ( -11.0025815153,   0.0000000000,   0.0000000000)
 A3 = (   0.0000000000,   0.0000000000, -24.4917850943)

Analysis of symmetry for initial positions (statically):
 Subroutine PRICEL returns:
 Original cell was already a primitive cell.

 Routine SETGRP: Setting up the symmetry group for a
 hexagonal supercell.

 Subroutine GETGRP returns: Found  1 space group operations
 (whereof  1 operations were pure point group operations)
 out of a pool of 24 trial point group operations.

The static configuration has the point symmetry C_1 .

Analysis of symmetry for dynamics (positions and initial velocities):
 Subroutine PRICEL returns:
 Original cell was already a primitive cell.

 Routine SETGRP: Setting up the symmetry group for a
 hexagonal supercell.

 Subroutine GETGRP returns: Found  1 space group operations
 (whereof  1 operations were pure point group operations)
 out of a pool of 24 trial point group operations.

The dynamic configuration has the point symmetry C_1 .

 KPOINTS: Automatic mesh

Automatic generation of k-mesh.
Space group operators:
 irot       det(A)        alpha          n_x          n_y          n_z        tau_x        tau_y        tau_z
    1     1.000000     0.000000     1.000000     0.000000     0.000000     0.000000     0.000000     0.000000

 Subroutine IBZKPT returns following result:

 Found      6 irreducible k-points:

 Following reciprocal coordinates:
            Coordinates               Weight
  0.250000  0.250000  0.000000     16.000000
  0.000000  0.250000  0.000000     16.000000
 -0.250000  0.000000  0.000000     16.000000
 -0.250000  0.250000  0.000000     16.000000
  0.500000 -0.250000  0.000000     16.000000
 -0.250000  0.500000  0.000000     16.000000

 Following cartesian coordinates:
            Coordinates               Weight
  0.022722  0.013119  0.000000     16.000000
  0.000000  0.026237  0.000000     16.000000
[...]
 dipolmoment           0.000000      0.000000     -0.035095 electrons x Angstroem
 Tr[quadrupol]    -10259.718797

 energy correction for charged system         0.000000 eV
 dipol+quadrupol energy correction           -0.000043 eV
 added-field ion interaction          0.048241 eV  (added to PSCEN)

  free energy =  -0.191927427184E+03  energy without entropy=  -0.191717862328E+03

 average (electrostatic) potential at core
  the test charge radii are     1.2098  1.1199
  (the norm of the test charge is              1.0000)
       1 -73.8620       2 -73.8814       3 -74.0287       4 -74.1276       5 -74.1126
       6 -74.1489       7 -74.0630       8 -74.0332       9 -74.1145      10 -74.1703
      11 -73.8441      12 -74.1363      13 -74.1778      14 -74.0396      15 -74.1219
      16 -73.9892      17 -74.0207      18 -74.0944      19 -74.1710      20 -74.0937
      21 -73.8275      22 -74.1488      23 -74.0545      24 -74.1089      25 -80.8033
      26 -80.8360      27 -80.8575      28 -80.9214      29 -80.8101      30 -80.8932
      31 -80.8783      32 -80.8080      33 -80.7665      34 -80.8608      35 -80.7930
      36 -80.7880      37 -80.8554      38 -80.8167      39 -80.7995      40 -80.8379
      41 -80.8641      42 -80.7324      43 -80.7715      44 -80.8034      45 -80.8393
      46 -80.8308      47 -80.8480      48 -80.8853

 E-fermi :  -1.0629     XC(G=0):  -4.5479     alpha+bet : -4.5210

[...]

 k-point     6 :      -0.2500    0.5000    0.0000
  band No.  band energies     occupation
      1      -8.6043      2.00000
      2      -8.2428      2.00000
      3      -8.0879      2.00000
      4      -7.5785      2.00000
      5      -7.2954      2.00000
      6      -7.1992      2.00000
      7      -7.1303      2.00000
      8      -7.0200      2.00000
      9      -6.9422      2.00000
     10      -6.8868      2.00000
     11      -6.8622      2.00000
     12      -6.8247      2.00000
     13      -6.7974      2.00000
     14      -6.7416      2.00000
     15      -6.7114      2.00000
     16      -6.6734      2.00000
     17      -6.6321      2.00000
     18      -6.5974      2.00000
     19      -6.5073      2.00000
     20      -6.4786      2.00000
     21      -6.4359      2.00000
     22      -6.4058      2.00000
     23      -6.3501      2.00000
     24      -6.3171      2.00000
     25      -6.3094      2.00000
     26      -6.2628      2.00000
     27      -6.2328      2.00000
     28      -6.1841      2.00000
     29      -6.1682      2.00000
     30      -6.1281      2.00000
     31      -6.1069      2.00000
     32      -6.0896      2.00000
     33      -6.0661      2.00000
     34      -6.0441      2.00000
     35      -6.0150      2.00000
     36      -5.9993      2.00000
     37      -5.9535      2.00000
     38      -5.9402      2.00000
     39      -5.9244      2.00000
     40      -5.8995      2.00000
     41      -5.8633      2.00000
     42      -5.8416      2.00000
     43      -5.8183      2.00000
     44      -5.7829      2.00000
     45      -5.7404      2.00000
     46      -5.7046      2.00000
     47      -5.6833      2.00000
     48      -5.6589      2.00000
     49      -5.6388      2.00000
     50      -5.6062      2.00000
     51      -5.5871      2.00000
     52      -5.5595      2.00000
     53      -5.5297      2.00000
     54      -5.4887      2.00000
     55      -5.4574      2.00000
     56      -5.4116      2.00000
     57      -5.3997      2.00000
     58      -5.3752      2.00000
     59      -5.3590      2.00000
     60      -5.3103      2.00000
[...]
    292       4.1943      0.00000
    293       4.4709      0.00000
    294       4.5074      0.00000
    295       4.5845      0.00000
    296       4.6005      0.00000
    297       4.6310      0.00000
    298       4.6628      0.00000
    299       4.8200      0.00000
    300       4.8823      0.00000
    301       4.9245      0.00000
    302       4.9756      0.00000
    303       5.0540      0.00000
    304       5.0888      0.00000
    305       5.1475      0.00000
    306       5.2535      0.00000

 soft charge-density along one line, spin component           1
         0         1         2         3         4         5         6         7         8         9
 total charge-density along one line

------------------------ aborting loop because EDIFF is reached ----------------------------------------

 VOLUME and BASIS-vectors are now :
  energy-cutoff  :      400.00
  volume of cell :     2567.68
      direct lattice vectors                 reciprocal lattice vectors
    11.002581515  0.000000000  0.000000000     0.090887761 -0.052474073  0.000000000
     5.501290758  9.528515099  0.000000000     0.000000000  0.104948147  0.000000000
     0.000000000  0.000000000 24.491785094     0.000000000  0.000000000  0.040830017

  length of vectors
    11.002581515 11.002581515 24.491785094     0.104948147  0.104948147  0.040830017

 FORCES acting on ions
    electron-ion (+dipol)            ewald-force                    non-local-force                 convergence-correction
   0.140E+02 0.503E+01 0.233E+04   -.144E+02 -.536E+01 -.233E+04   0.418E+00 0.335E+00 -.766E-01   0.116E-01 -.842E-02 0.612E-02
   -.764E+01 0.741E+01 0.228E+04   0.809E+01 -.804E+01 -.228E+04   -.438E+00 0.642E+00 -.366E+00   -.801E-03 -.120E-01 -.952E-02
   -.158E+01 -.183E+01 -.223E+04   0.986E+00 0.245E+01 0.223E+04   0.578E+00 -.625E+00 0.158E+00   0.898E-02 0.107E-01 0.658E-02
   -.206E+01 0.522E+01 -.217E+04   0.210E+01 -.501E+01 0.217E+04   -.441E-01 -.207E+00 0.369E+00   0.704E-02 -.122E-01 -.108E-01
   0.901E+01 -.321E+00 -.219E+04   -.928E+01 0.538E+00 0.219E+04   0.274E+00 -.216E+00 0.308E+00   -.422E-02 -.405E-02 0.389E-02
   0.149E+01 0.109E+01 0.904E+02   -.151E+01 -.209E+01 -.905E+02   0.103E-01 0.100E+01 0.180E-01   0.133E-01 0.585E-03 0.104E-01
   -.497E+01 -.221E+01 -.221E+04   0.538E+01 0.286E+01 0.221E+04   -.413E+00 -.666E+00 0.217E+00   -.451E-02 0.148E-01 -.178E-01
   0.118E+02 0.150E+02 -.224E+04   -.124E+02 -.156E+02 0.224E+04   0.614E+00 0.541E+00 -.458E-01   -.112E-01 -.780E-02 0.281E-01
   0.788E+00 -.503E+00 0.282E+02   -.218E+00 0.501E+00 -.298E+02   -.550E+00 -.676E-02 0.158E+01   -.148E-01 0.150E-01 -.582E-02
   -.117E+02 -.338E+01 0.857E+02   0.116E+02 0.398E+01 -.857E+02   0.169E+00 -.591E+00 -.516E-01   -.155E-01 -.143E-01 0.356E-02
   -.117E+02 -.542E+01 0.233E+04   0.116E+02 0.613E+01 -.233E+04   0.137E+00 -.696E+00 -.851E-01   -.187E-01 -.392E-03 0.253E-02
   -.144E+02 -.178E+01 0.796E+02   0.148E+02 0.128E+01 -.796E+02   -.392E+00 0.504E+00 -.611E-01   -.245E-01 -.262E-02 0.942E-02
   0.985E+01 -.174E+01 0.646E+02   -.103E+02 0.158E+01 -.651E+02   0.417E+00 0.172E+00 0.511E+00   0.370E-02 -.668E-02 0.163E-02
   0.603E+01 0.806E+01 -.225E+04   -.648E+01 -.874E+01 0.225E+04   0.437E+00 0.686E+00 -.191E+00   0.566E-02 -.306E-02 -.177E-02
   -.145E+01 0.501E+00 0.197E+02   0.820E+00 -.534E+00 -.212E+02   0.621E+00 0.360E-01 0.152E+01   0.506E-02 0.885E-03 -.165E-01
   -.120E+02 -.143E+02 -.226E+04   0.130E+02 0.145E+02 0.226E+04   -.104E+01 -.174E+00 -.179E+00   0.153E-01 0.491E-02 -.270E-02
   0.997E+01 -.122E+02 -.222E+04   -.108E+02 0.122E+02 0.222E+04   0.887E+00 0.835E-02 0.121E+00   -.382E-02 0.622E-02 0.183E-02
   -.781E+01 -.459E+01 -.220E+04   0.820E+01 0.472E+01 0.220E+04   -.402E+00 -.135E+00 0.658E-01   0.502E-03 0.681E-02 0.880E-02
   0.138E+02 -.860E+01 0.103E+03   -.136E+02 0.891E+01 -.102E+03   -.157E+00 -.309E+00 -.680E+00   0.201E-01 0.204E-02 -.380E-02
   0.838E+00 0.780E+01 -.219E+04   -.222E+00 -.833E+01 0.219E+04   -.626E+00 0.539E+00 0.114E+00   0.376E-02 -.155E-02 -.190E-02
   0.429E+01 -.161E+02 0.233E+04   -.358E+01 0.166E+02 -.233E+04   -.727E+00 -.521E+00 -.860E-01   0.204E-01 0.349E-02 -.102E-01
   0.386E+01 -.450E+01 -.219E+04   -.403E+01 0.468E+01 0.219E+04   0.164E+00 -.176E+00 0.241E+00   0.489E-02 -.257E-02 -.544E-02
   -.128E+02 0.102E+02 -.222E+04   0.133E+02 -.107E+02 0.222E+04   -.516E+00 0.566E+00 -.801E-02   0.198E-01 -.162E-01 0.309E-01
   -.383E+01 0.551E+01 0.576E+02   0.325E+01 -.489E+01 -.587E+02   0.546E+00 -.626E+00 0.110E+01   0.242E-01 0.489E-02 0.338E-02
   -.206E+01 -.203E+02 -.194E+04   0.204E+01 0.204E+02 0.194E+04   0.185E-01 -.166E+00 0.162E+01   -.393E-03 0.991E-02 0.343E-02
   0.135E+01 -.336E+01 0.199E+04   -.110E+01 0.379E+01 -.198E+04   -.239E+00 -.418E+00 -.192E+01   -.585E-02 -.104E-01 -.175E-01
   0.210E+01 0.202E+01 0.373E+02   -.112E+01 -.190E+01 -.381E+02   -.966E+00 -.115E+00 0.885E+00   -.921E-02 -.781E-03 0.455E-02
   -.899E+00 0.350E+01 0.191E+02   0.894E+00 -.349E+01 -.204E+02   0.143E-01 -.147E-01 0.132E+01   -.126E-01 0.295E-02 0.497E-02
   0.731E+01 -.321E+01 0.201E+04   -.768E+01 0.342E+01 -.201E+04   0.353E+00 -.215E+00 -.184E+01   0.670E-02 0.793E-02 -.789E-02
   -.499E+01 0.489E+01 0.215E+02   0.464E+01 -.516E+01 -.223E+02   0.352E+00 0.258E+00 0.833E+00   -.548E-03 0.193E-01 0.138E-01
   -.415E+01 0.169E+01 0.408E+02   0.318E+01 -.156E+01 -.418E+02   0.956E+00 -.121E+00 0.963E+00   0.122E-01 -.135E-01 0.210E-01
   0.153E+02 -.931E+01 0.201E+04   -.160E+02 0.943E+01 -.201E+04   0.707E+00 -.111E+00 -.188E+01   0.113E-01 -.601E-02 -.300E-01
   0.192E+01 0.182E+02 0.205E+04   -.251E+01 -.187E+02 -.204E+04   0.603E+00 0.412E+00 -.163E+01   -.853E-02 0.184E-01 -.832E-02
   0.298E+01 -.527E+01 0.431E+02   -.294E+01 0.550E+01 -.436E+02   -.398E-01 -.229E+00 0.471E+00   -.106E-02 -.285E-02 -.964E-02
   -.105E+02 -.182E+02 0.203E+04   0.104E+02 0.184E+02 -.203E+04   0.136E+00 -.164E+00 -.159E+01   -.148E-01 0.907E-02 -.539E-02
   0.357E+01 0.533E+01 0.201E+04   -.357E+01 -.534E+01 -.200E+04   0.917E-02 -.693E-02 -.193E+01   -.866E-02 0.129E-01 -.201E-01
   -.169E+01 -.236E+01 0.242E+02   0.170E+01 0.213E+01 -.250E+02   -.205E-01 0.242E+00 0.812E+00   0.757E-02 -.116E-01 -.178E-01
   -.684E+01 -.989E+01 0.201E+04   0.730E+01 0.100E+02 -.201E+04   -.430E+00 -.126E+00 -.184E+01   -.256E-01 -.175E-02 -.155E-01
   0.165E+02 -.140E+01 -.194E+04   -.170E+02 0.146E+01 0.194E+04   0.507E+00 -.725E-01 0.121E+01   -.158E-01 0.334E-02 0.436E-01
   0.268E+01 0.105E+02 0.203E+04   -.261E+01 -.105E+02 -.202E+04   -.695E-01 0.148E-01 -.170E+01   -.709E-03 -.136E-01 0.257E-02
   0.222E+01 0.158E+00 0.360E+02   -.219E+01 0.291E+00 -.368E+02   -.291E-01 -.451E+00 0.801E+00   0.103E-01 -.158E-02 -.445E-02
   -.307E+01 0.542E+01 0.207E+04   0.323E+01 -.570E+01 -.206E+04   -.146E+00 0.281E+00 -.121E+01   -.629E-02 -.626E-02 0.325E-02
   0.372E+01 0.212E+02 0.205E+04   -.339E+01 -.215E+02 -.205E+04   -.321E+00 0.367E+00 -.162E+01   -.542E-02 0.748E-02 -.369E-02
   -.177E+02 -.568E+01 -.194E+04   0.181E+02 0.554E+01 0.194E+04   -.401E+00 0.142E+00 0.125E+01   0.133E-01 0.396E-02 0.309E-01
   -.372E+01 0.395E+00 0.203E+04   0.412E+01 -.250E+00 -.203E+04   -.373E+00 -.139E+00 -.178E+01   -.155E-01 -.778E-03 0.851E-02
   0.269E+01 0.203E+02 -.193E+04   -.267E+01 -.203E+02 0.193E+04   -.248E-01 0.148E-01 0.121E+01   0.306E-02 -.705E-02 0.256E-01
   -.685E+01 -.563E+01 0.200E+04   0.686E+01 0.535E+01 -.200E+04   -.825E-02 0.282E+00 -.177E+01   0.125E-02 -.876E-02 -.148E-01
   0.680E+01 0.273E+01 0.246E+02   -.610E+01 -.302E+01 -.254E+02   -.702E+00 0.278E+00 0.836E+00   -.380E-02 0.100E-01 -.506E-02
   0.993E-01 -.124E-02 0.399E+01   -.468E-12 0.593E-12 -.167E-11   -.149E+00 0.227E-01 -.400E+01   -.306E-02 -.122E-02 0.329E-01

 POSITION                                       TOTAL-FORCE (eV/Angst)
      1.36556      0.79104      9.65641        -0.002044      0.003299     -0.005415
     13.77956      7.92433      9.74088         0.009123     -0.001113     -0.003681
     10.98782      4.78034     14.77723        -0.001384      0.003453     -0.001277
      9.62067      2.38480     14.69992         0.000162     -0.007951      0.005326
      8.22534      0.00050     14.71750         0.003459     -0.003289      0.003140
      9.62449      8.69825     12.17972        -0.001433     -0.000003     -0.002705
      8.24846      4.78200     14.76516        -0.005549     -0.000588      0.003716
      6.84178      2.36045     14.78195        -0.002523     -0.002534     -0.007881
      6.88858      3.96596     12.23006         0.005833      0.006232     -0.000362
      5.50724      1.59444     12.18111         0.002799      0.000528     -0.007717
      6.89041      0.82076      9.66751         0.004222      0.003772     -0.007720
     12.39208      8.71119     12.19322        -0.003808      0.001110      0.000462
      6.86006      8.72665     12.20173        -0.008477     -0.001580     -0.004967
      5.48687      4.74061     14.83049        -0.000746      0.003900     -0.002431
      5.48023      6.34741     12.23827        -0.000797      0.003122      0.003131
      6.90425      7.15855     14.81801        -0.008024     -0.000210      0.001342
     12.33879      7.15545     14.74859         0.004641      0.001266      0.000707
      0.01258     -0.00174     14.72962        -0.010009      0.002938     -0.003158
      2.73728      1.60022     12.17054        -0.004912     -0.001202     -0.004453
      2.75348      4.74696     14.73116        -0.005152      0.001400      0.002966
      2.77767      3.20435      9.64670         0.004685     -0.002183      0.000132
      4.11742      7.14682     14.74542         0.005095      0.000696      0.001041
      1.39649      2.36071     14.74886        -0.001923     -0.005229     -0.002691
     12.36129      3.98381     12.20627        -0.003084      0.003297      0.004476
      9.61783      7.16300     14.60477        -0.001523     -0.001807     -0.002254
      9.64116      0.81582      9.88004         0.001189     -0.002291     -0.004635
      8.27142      1.58649     12.23203         0.000665      0.001453      0.004888
      9.62555      3.97602     12.25141        -0.001906     -0.002767      0.011502
     12.36876      5.56842      9.86759        -0.008401      0.001971     -0.001345
     10.99453      6.33139     12.25237         0.003094      0.003682      0.000543
     10.97340      1.59395     12.22608         0.001782     -0.001636      0.009795
     10.99190      3.19048      9.85570         0.001362      0.001112     -0.002451
     10.99481      7.92783      9.80951         0.002444     -0.002396      0.000989
      4.11521      3.97938     12.22165        -0.000113      0.001627      0.002203
      5.52136      3.19683      9.82252        -0.002946      0.002643     -0.002594
      9.63890      5.56238      9.88934         0.001655     -0.003154      0.000677
     13.74504      6.35115     12.24581        -0.002469     -0.000138      0.007003
      8.27985      3.20029      9.87222         0.005068     -0.002206     -0.006234
      5.46848     -0.00100     14.58004         0.000196     -0.002509     -0.011162
      5.51875      7.93345      9.84231         0.002852      0.000350      0.001740
     15.11940      8.74539     12.23229         0.006080     -0.003703      0.005953
      4.13627      0.78563      9.75444         0.004344     -0.004346      0.012579
      8.26875      7.92288      9.80776        -0.002157     -0.000643      0.002813
      2.76796     -0.00464     14.58206         0.000119      0.000042     -0.001077
      6.90124      5.56690      9.86480         0.007180      0.005434     -0.003160
      4.11988      2.36524     14.58646        -0.000951      0.003733      0.002274
      4.14616      5.55664      9.87036         0.003640     -0.001538      0.002978
      8.26017      6.32957     12.24494        -0.001360     -0.002045     -0.003007
    total drift:                               -0.052643      0.020266      0.018364

  FREE ENERGIE OF THE ION-ELECTRON SYSTEM (eV)
  free  energy   TOTEN  =      -191.92742718 eV

  energy  without entropy=     -191.71786233  energy(sigma->0) =     -191.82264476

 d Force = 0.3043377E-03[ 0.978E-04, 0.511E-03]  d Energy = 0.3098502E-03-0.551E-05
 d Force =-0.8914616E+01[-0.890E+01,-0.893E+01]  d Ewald  =-0.8914619E+01 0.286E-05

 stress matrix after NEB project (eV)
      0.00000      0.00000      0.00000
      0.00000      0.00000      0.00000
      0.00000      0.00000      0.00000
  FORCES: max atom, RMS     0.014000    0.007091
  FORCE total and by dimension    0.049129    0.012579
  Stress total and by dimension    0.000000    0.000000
 Conjugate gradient step on ions:
 trial-energy change:   -0.000310  1 .order   -0.000304   -0.000511   -0.000098
  (g-gl).g = 0.217E-03      g.g   = 0.199E-03  gl.gl    = 0.323E-03
 g(Force)  = 0.199E-03   g(Stress)= 0.000E+00 ortho     =-0.440E-05
 gamma     =   0.67121
 trial     =   2.60024
 opt step  =   3.16154  (harmonic =   3.21619) maximal distance =0.00313519
 next E    =  -191.927438   (d E  =  -0.00032)

 reached required accuracy - stopping structural energy minimisation