 vasp.5.4.1 24Jun15 (build Mar 14 2019 10:18:33) complex

 executed on INTEL-19.0.2+OPENMPI date 2023.01.30  16:50:20

 INCAR:
 POTCAR:    PAW_PBE Au 04Oct2007
 POTCAR:    PAW_PBE Pd 04Jan2005
 POTCAR:    PAW_PBE Au 04Oct2007

 POTCAR:    PAW_PBE Pd 04Jan2005

 Optimization of the real space projectors (new method)

 maximal supplied QI-value         = 15.12
 optimisation between [QCUT,QGAM] = [ 10.13, 20.41] = [ 28.73,116.64] Ry
 Optimized for a Real-space Cutoff    1.51 Angstroem

   l    n(q)    QCUT    max X(q) W(low)/X(q) W(high)/X(q)  e(spline)
   2      8    10.129    60.898    0.46E-03    0.46E-03    0.14E-06
   2      8    10.129    58.894    0.47E-03    0.47E-03    0.14E-06
   0      9    10.129   109.617    0.16E-03    0.11E-03    0.54E-07
   0      9    10.129    75.026    0.15E-03    0.11E-03    0.52E-07
   1      9    10.129    16.344    0.96E-04    0.15E-03    0.14E-06
   1      9    10.129    10.160    0.81E-04    0.12E-03    0.11E-06
 Optimization of the real space projectors (new method)

 maximal supplied QI-value         = 14.36
 optimisation between [QCUT,QGAM] = [ 10.20, 20.39] = [ 29.12,116.47] Ry
 Optimized for a Real-space Cutoff    1.51 Angstroem

   l    n(q)    QCUT    max X(q) W(low)/X(q) W(high)/X(q)  e(spline)
   2      8    10.197    59.108    0.26E-03    0.14E-03    0.96E-07
   2      8    10.197    58.101    0.27E-03    0.14E-03    0.98E-07
   0      9    10.197   102.235    0.54E-04    0.60E-05    0.72E-07
   0      9    10.197    58.388    0.52E-04    0.60E-05    0.68E-07
   1      9    10.197    22.191    0.18E-03    0.25E-03    0.79E-07
   1      9    10.197    15.590    0.15E-03    0.21E-03    0.69E-07
  PAW_PBE Au 04Oct2007                  :
  PAW_PBE Pd 04Jan2005                  :

 POSCAR: Au Pd
  positions in cartesian coordinates
 exchange correlation table for  LEXCH =        8
   RHO(1)=    0.500       N(1)  =     2000
   RHO(2)=  100.500       N(2)  =     4000

 VTST: version 3.2, (02/03/18)

 CHAIN: initializing optimizer

 OPT: Using VASP Conjugate-Gradient optimizer
 CHAIN: Read ICHAIN            0

 POSCAR: Au Pd
  positions in cartesian coordinates

 ion  position               nearest neighbor table
   1  0.083  0.083  0.408-  28 2.75  17 2.75   2 2.75  29 2.75  45 2.75  41 2.75  10 2.75  26 2.75
                             9 2.75
   2  0.083  0.833  0.408-  26 2.75   5 2.75  14 2.75   1 2.75  41 2.75  17 2.75  44 2.75  15 2.75
                            13 2.75
   3  0.583  0.833  0.408-  19 2.75  10 2.75  20 2.75  23 2.75  39 2.75  17 2.75  44 2.75   4 2.75
                            42 2.75
   4  0.667  0.667  0.500-  23 2.75  38 2.75  40 2.75   6 2.75   7 2.75  19 2.75  42 2.75  31 2.75
                            47 2.75   3 2.75  39 2.75  48 2.75
   5  0.083  0.583  0.408-  15 2.75   2 2.75  24 2.75  29 2.75  44 2.75  39 2.75  14 2.75  11 2.75
                            31 2.75
   6  0.667  0.417  0.500-  22 2.75  36 2.75  46 2.75   9 2.75  43 2.75   4 2.75  47 2.75   7 2.75
                            33 2.75  23 2.75  38 2.75  45 2.75
   7  0.917  0.417  0.500-  45 2.75  32 2.75  38 2.75  31 2.75   4 2.75   9 2.75  28 2.75  11 2.75
                             6 2.75  39 2.75  30 2.75  29 2.75
   8  0.000  0.000  0.592-   9 2.75  26 2.75  32 2.75  34 2.75  36 2.75  37 2.75  18 2.75  12 2.75
                            13 2.75
   9  0.917  0.167  0.500-  41 2.75   8 2.75  36 2.75  13 2.75  26 2.75   7 2.75   6 2.75  28 2.75
                            43 2.75  45 2.75   1 2.75  32 2.75
  10  0.333  0.083  0.408-  21 2.75  17 2.75   3 2.75  24 2.75  29 2.75  20 2.75   1 2.75  42 2.75
                            28 2.75
  11  0.167  0.417  0.500-  29 2.75  27 2.75  30 2.75  28 2.75  21 2.75  15 2.75  31 2.75   7 2.75
                            33 2.75   5 2.75  16 2.75  24 2.75
  12  0.250  0.000  0.592-  28 2.75  42 2.75  32 2.75  37 2.75  40 2.75  27 2.75   8 2.75  25 2.75
                            26 2.75
  13  0.917  0.917  0.500-  44 2.75  34 2.75  18 2.75  31 2.75  15 2.75  43 2.75   9 2.75  19 2.75
                            26 2.75  41 2.75   2 2.75   8 2.75
  14  0.333  0.583  0.408-  47 2.75  17 2.75  22 2.75  24 2.75   2 2.75   5 2.75  23 2.75  33 2.75
                            15 2.75
  15  0.167  0.667  0.500-   5 2.75  16 2.75  34 2.75  11 2.75  26 2.75  33 2.75  13 2.75  31 2.75
                            47 2.75   2 2.75  37 2.75  14 2.75
  16  0.250  0.500  0.592-  15 2.75  33 2.75  27 2.75  34 2.75  35 2.75  37 2.75  30 2.75  46 2.75
                            11 2.75
  17  0.333  0.833  0.408-  42 2.75  10 2.75  14 2.75  23 2.75   1 2.75   2 2.75   3 2.75  47 2.75
                            26 2.75
  18  0.750  0.000  0.592-  43 2.75  13 2.75  35 2.75  36 2.75  34 2.75  48 2.75  25 2.75   8 2.75
                            19 2.75
  19  0.667  0.917  0.500-   3 2.75  48 2.75  25 2.75   4 2.75  31 2.75  43 2.75  21 2.75  13 2.75
                            42 2.75  20 2.75  44 2.75  18 2.75
  20  0.583  0.083  0.408-  43 2.75  22 2.75  24 2.75   3 2.75  44 2.75  10 2.75  41 2.75  19 2.75
                            21 2.75
  21  0.417  0.167  0.500-  10 2.75  25 2.75  27 2.75  11 2.75  19 2.75  33 2.75  42 2.75  28 2.75
                            43 2.75  24 2.75  20 2.75  35 2.75
  22  0.583  0.333  0.408-   6 2.75  14 2.75  20 2.75  23 2.75  41 2.75  24 2.75  45 2.75  43 2.75
                            33 2.75
  23  0.583  0.583  0.408-   4 2.75   3 2.75  17 2.75  22 2.75  45 2.75  39 2.75  14 2.75   6 2.75
                            47 2.75
  24  0.333  0.333  0.408-  33 2.75  10 2.75  14 2.75  20 2.75   5 2.75  29 2.75  22 2.75  21 2.75
                            11 2.75
  25  0.500  0.000  0.592-  21 2.75  19 2.75  27 2.75  35 2.75  40 2.75  48 2.75  12 2.75  18 2.75
                            42 2.75
  26  0.167  0.917  0.500-   2 2.75  37 2.75   8 2.75  15 2.75  28 2.75   9 2.75  47 2.75  42 2.75
                            13 2.75   1 2.75  12 2.75  17 2.75
  27  0.250  0.250  0.592-  11 2.75  21 2.75  16 2.75  12 2.75  25 2.75  30 2.75  32 2.75  35 2.75
                            28 2.75
  28  0.167  0.167  0.500-   1 2.75  12 2.75  32 2.75   7 2.75  26 2.75  11 2.75  42 2.75  21 2.75
                             9 2.75  29 2.75  27 2.75  10 2.75
  29  0.083  0.333  0.408-  11 2.75   5 2.75  10 2.75   1 2.75  39 2.75  24 2.75  45 2.75  28 2.75
                             7 2.75
  30  0.000  0.500  0.592-  31 2.75  11 2.75  27 2.75  32 2.75  34 2.75  48 2.75  38 2.75  16 2.75
                             7 2.75
  31  0.917  0.667  0.500-  39 2.75  30 2.75  48 2.75  19 2.75   7 2.75  11 2.75  13 2.75   4 2.75
                            15 2.75  44 2.75  34 2.75   5 2.75
  32  0.000  0.250  0.592-   7 2.75  28 2.75  12 2.75   8 2.75  30 2.75  38 2.75  36 2.75  27 2.75
                             9 2.75
  33  0.417  0.417  0.500-  24 2.75  35 2.75  16 2.75  15 2.75  21 2.75  43 2.75  47 2.75  11 2.75
                             6 2.75  14 2.75  46 2.75  22 2.75
  34  0.000  0.750  0.592-  13 2.75  15 2.75   8 2.75  16 2.75  18 2.75  30 2.75  37 2.75  48 2.75
                            31 2.75
  35  0.500  0.250  0.592-  33 2.75  43 2.75  25 2.75  16 2.75  18 2.75  46 2.75  27 2.75  36 2.75
                            21 2.75
  36  0.750  0.250  0.592-   6 2.75   9 2.75   8 2.75  18 2.75  38 2.75  46 2.75  32 2.75  35 2.75
                            43 2.75
  37  0.250  0.750  0.592-  26 2.75  47 2.75  16 2.75   8 2.75  46 2.75  12 2.75  34 2.75  40 2.75
                            15 2.75
  38  0.750  0.500  0.592-   4 2.75   7 2.75  32 2.75  36 2.75  40 2.75  48 2.75  46 2.75  30 2.75
                             6 2.75
  39  0.833  0.583  0.408-  31 2.75  29 2.75   3 2.75  44 2.75  45 2.75   5 2.75  23 2.75   7 2.75
                             4 2.75
  40  0.500  0.750  0.592-  42 2.75   4 2.75  25 2.75  38 2.75  12 2.75  46 2.75  37 2.75  48 2.75
                            47 2.75
  41  0.833  0.083  0.408-   9 2.75   2 2.75  22 2.75  44 2.75  45 2.75  20 2.75   1 2.75  13 2.75
                            43 2.75
  42  0.417  0.917  0.500-  17 2.75  40 2.75  12 2.75  21 2.75  28 2.75   4 2.75  47 2.75  26 2.75
                            19 2.75  10 2.75   3 2.75  25 2.75
  43  0.667  0.167  0.500-  20 2.75  18 2.75  35 2.75  19 2.75  13 2.75  33 2.75   6 2.75   9 2.75
                            21 2.75  22 2.75  36 2.75  41 2.75
  44  0.833  0.833  0.408-  13 2.75   5 2.75  20 2.75  39 2.75  41 2.75   3 2.75   2 2.75  31 2.75
                            19 2.75
  45  0.833  0.333  0.408-   7 2.75   1 2.75  23 2.75  39 2.75  41 2.75  22 2.75  29 2.75   9 2.75
                             6 2.75
  46  0.500  0.500  0.592-  47 2.75   6 2.75  36 2.75  37 2.75  40 2.75  35 2.75  16 2.75  38 2.75
                            33 2.75
  47  0.417  0.667  0.500-  14 2.75  46 2.75  37 2.75  33 2.75   6 2.75  42 2.75  26 2.75  15 2.75
                             4 2.75  17 2.75  23 2.75  40 2.75
  48  0.750  0.750  0.592-  19 2.75  31 2.75  25 2.75  30 2.75  18 2.75  38 2.75  34 2.75  40 2.75
                             4 2.75

  LATTYP: Found a hexagonal cell.
 ALAT       =    11.0025815153
 C/A-ratio  =     2.2260035120

  Lattice vectors:

 A1 = (   5.5012907576,  -9.5285150994,   0.0000000000)
 A2 = ( -11.0025815153,   0.0000000000,   0.0000000000)
 A3 = (   0.0000000000,   0.0000000000, -24.4917850943)

Analysis of symmetry for initial positions (statically):
 Subroutine PRICEL returns:
 Original cell was already a primitive cell.

 Routine SETGRP: Setting up the symmetry group for a
 hexagonal supercell.

 Subroutine GETGRP returns: Found  1 space group operations
 (whereof  1 operations were pure point group operations)
 out of a pool of 24 trial point group operations.

The static configuration has the point symmetry C_1 .

Analysis of symmetry for dynamics (positions and initial velocities):
 Subroutine PRICEL returns:
 Original cell was already a primitive cell.

[...]

The dynamic configuration has the point symmetry C_1 .

Analysis of constrained symmetry for selective dynamics:
 Subroutine PRICEL returns:
 Original cell was already a primitive cell.

 Routine SETGRP: Setting up the symmetry group for a
 hexagonal supercell.

 Subroutine GETGRP returns: Found  1 space group operations
 (whereof  1 operations were pure point group operations)
 out of a pool of 24 trial point group operations.

The constrained configuration has the point symmetry C_1 .

 KPOINTS: Automatic mesh

Automatic generation of k-mesh.
Space group operators:
 irot       det(A)        alpha          n_x          n_y          n_z        tau_x        tau_y        tau_z
    1     1.000000     0.000000     1.000000     0.000000     0.000000     0.000000     0.000000     0.000000

 Subroutine IBZKPT returns following result:

 Found      6 irreducible k-points:

 Following reciprocal coordinates:
            Coordinates               Weight
  0.250000  0.250000  0.000000     16.000000
  0.000000  0.250000  0.000000     16.000000
 -0.250000  0.000000  0.000000     16.000000
 -0.250000  0.250000  0.000000     16.000000
  0.500000 -0.250000  0.000000     16.000000
[...]
  2.4399  0.9800  0.5619  0.1457  0.2784  0.2207

[...]

----------------------------------------- Iteration   19(   8)  ---------------------------------------

 eigenvalue-minimisations  :  2547
 total energy-change (2. order) : 0.4093308E-06  (-0.3148931E-06)
 number of electron     503.9999041 magnetization
 augmentation part      197.3915923 magnetization

 DIPCOR: dipole corrections for dipol
 direction  3 min pos     1,
 dipolmoment           0.000000      0.000000      0.026208 electrons x Angstroem
 Tr[quadrupol]    -10247.771785

 energy correction for charged system         0.000000 eV
 dipol+quadrupol energy correction           -0.000024 eV
 added-field ion interaction         -0.174519 eV  (added to PSCEN)

  free energy =  -0.191708822686E+03  energy without entropy=  -0.191508554265E+03

 average (electrostatic) potential at core
  the test charge radii are     1.2098  1.1199
  (the norm of the test charge is              1.0000)
       1 -74.0311       2 -74.0573       3 -74.0483       4 -74.1375       5 -74.0318
       6 -74.1260       7 -74.1126       8 -73.8729       9 -74.1254      10 -74.0906
      11 -74.1515      12 -73.9046      13 -74.1362      14 -74.1472      15 -74.1503
      16 -73.8571      17 -74.1232      18 -73.8568      19 -74.1508      20 -74.0871
      21 -74.1261      22 -74.0242      23 -74.0741      24 -74.1053      25 -80.7893
      26 -80.8495      27 -80.7735      28 -80.8535      29 -80.7215      30 -80.8121
      31 -80.8692      32 -80.7903      33 -80.8311      34 -80.8014      35 -80.7928
      36 -80.7661      37 -80.7932      38 -80.8113      39 -80.6854      40 -80.8013
      41 -80.7403      42 -80.8607      43 -80.8255      44 -80.7144      45 -80.6769
      46 -80.8024      47 -80.8618      48 -80.7782

 E-fermi :  -1.0809     XC(G=0):  -4.5495     alpha+bet : -4.5215

[...]

 k-point     6 :      -0.2500    0.5000    0.0000
  band No.  band energies     occupation
      1      -8.6071      2.00000
      2      -8.2546      2.00000
      3      -8.1052      2.00000
      4      -7.6543      2.00000
      5      -7.3127      2.00000
      6      -7.1632      2.00000
      7      -7.0370      2.00000
      8      -6.9947      2.00000
      9      -6.9833      2.00000
     10      -6.9293      2.00000
     11      -6.8871      2.00000
     12      -6.8709      2.00000
     13      -6.8372      2.00000
     14      -6.8063      2.00000
     15      -6.7604      2.00000
     16      -6.7117      2.00000
     17      -6.6757      2.00000
     18      -6.6063      2.00000
     19      -6.5780      2.00000
     20      -6.5189      2.00000
     21      -6.4853      2.00000
     22      -6.3823      2.00000
     23      -6.3350      2.00000
     24      -6.3184      2.00000
     25      -6.2985      2.00000
     26      -6.2692      2.00000
     27      -6.2567      2.00000
     28      -6.2096      2.00000
     29      -6.1931      2.00000
     30      -6.1751      2.00000
     31      -6.1499      2.00000
     32      -6.1126      2.00000
     33      -6.1072      2.00000
     34      -6.0883      2.00000
     35      -6.0524      2.00000
     36      -6.0320      2.00000
     37      -5.9920      2.00000
     38      -5.9674      2.00000
     39      -5.9250      2.00000
     40      -5.9159      2.00000
     41      -5.9113      2.00000
     42      -5.8465      2.00000
     43      -5.8190      2.00000
     44      -5.7934      2.00000
     45      -5.7433      2.00000
     46      -5.7280      2.00000
     47      -5.6852      2.00000
     48      -5.6758      2.00000
     49      -5.6416      2.00000
     50      -5.6222      2.00000
     51      -5.5759      2.00000
     52      -5.5556      2.00000
     53      -5.5270      2.00000
     54      -5.4938      2.00000
     55      -5.4695      2.00000
     56      -5.4506      2.00000
     57      -5.4208      2.00000
     58      -5.3878      2.00000
     59      -5.3630      2.00000
     60      -5.3446      2.00000
[...]
    292       4.2127      0.00000
    293       4.5146      0.00000
    294       4.5498      0.00000
    295       4.6192      0.00000
    296       4.6374      0.00000
    297       4.6658      0.00000
    298       4.8159      0.00000
    299       4.8361      0.00000
    300       4.9236      0.00000
    301       4.9575      0.00000
    302       4.9812      0.00000
    303       5.0689      0.00000
    304       5.0846      0.00000
    305       5.1327      0.00000
    306       5.2476      0.00000

 soft charge-density along one line, spin component           1
         0         1         2         3         4         5         6         7         8         9
 total charge-density along one line

------------------------ aborting loop because EDIFF is reached ----------------------------------------

 VOLUME and BASIS-vectors are now :
  energy-cutoff  :      400.00
  volume of cell :     2567.68
      direct lattice vectors                 reciprocal lattice vectors
    11.002581515  0.000000000  0.000000000     0.090887761 -0.052474073  0.000000000
     5.501290758  9.528515099  0.000000000     0.000000000  0.104948147  0.000000000
     0.000000000  0.000000000 24.491785094     0.000000000  0.000000000  0.040830017

  length of vectors
    11.002581515 11.002581515 24.491785094     0.104948147  0.104948147  0.040830017

 FORCES acting on ions
    electron-ion (+dipol)            ewald-force                    non-local-force                 convergence-correction
   0.121E+02 -.186E+02 0.220E+04   -.124E+02 0.195E+02 -.220E+04   0.111E+00 -.517E+00 -.343E+00   0.221E-02 -.707E-02 0.519E-02
   0.177E+02 -.120E+02 0.220E+04   -.182E+02 0.125E+02 -.220E+04   0.276E+00 -.356E+00 0.374E+00   0.807E-02 -.149E-02 0.751E-02
   -.204E+02 0.818E+01 0.220E+04   0.210E+02 -.853E+01 -.220E+04   -.294E+00 0.186E+00 0.227E+00   -.874E-02 0.472E-02 0.873E-02
   -.247E+01 -.110E+01 -.441E+02   0.242E+01 0.153E+01 0.452E+02   0.565E-01 -.432E+00 -.113E+01   -.197E-01 0.108E-01 0.102E-01
   0.250E+02 -.289E+01 0.220E+04   -.265E+02 0.310E+01 -.220E+04   0.949E+00 -.161E+00 0.120E+00   0.990E-02 -.441E-03 0.140E-02
   0.440E+00 0.365E+01 -.447E+02   -.148E+01 -.382E+01 0.459E+02   0.106E+01 0.172E+00 -.123E+01   -.990E-02 0.881E-02 0.619E-02
   -.119E+01 0.130E+01 0.283E+02   0.181E+01 -.132E+01 -.284E+02   -.617E+00 0.148E-01 0.944E-01   -.691E-02 -.904E-02 -.387E-02
   -.366E+01 -.409E+01 -.230E+04   0.380E+01 0.405E+01 0.230E+04   -.135E+00 0.473E-01 0.105E+00   -.564E-02 -.131E-01 0.532E-02
   0.377E+00 0.993E+01 -.185E+02   -.411E+00 -.101E+02 0.186E+02   0.421E-01 0.172E+00 -.570E-01   -.701E-02 -.612E-02 -.147E-02
   0.598E+01 -.967E+01 0.219E+04   -.645E+01 0.101E+02 -.219E+04   0.337E+00 -.223E+00 -.227E+00   0.269E-02 -.488E-02 0.851E-02
   -.381E+01 -.353E+01 -.553E+02   0.335E+01 0.328E+01 0.559E+02   0.446E+00 0.249E+00 -.560E+00   0.140E-01 -.873E-02 -.197E-03
   -.438E+01 -.277E+01 -.226E+04   0.496E+01 0.287E+01 0.226E+04   -.585E+00 -.845E-01 0.675E+00   0.925E-02 -.172E-01 -.753E-02
   0.254E+00 -.786E+01 -.268E+02   -.555E+00 0.775E+01 0.262E+02   0.296E+00 0.104E+00 0.554E+00   0.120E-02 0.610E-02 0.830E-02
   0.213E+01 0.238E+01 0.219E+04   -.184E+01 -.247E+01 -.219E+04   -.262E+00 0.537E-01 -.247E+00   0.410E-02 0.446E-03 0.119E-01
   0.297E+01 0.288E+01 -.928E+02   -.240E+01 -.254E+01 0.939E+02   -.578E+00 -.353E+00 -.111E+01   0.184E-01 0.429E-02 -.683E-03
   0.385E+01 0.110E+01 -.234E+04   -.366E+01 -.135E+01 0.234E+04   -.203E+00 0.241E+00 0.510E-01   0.209E-01 -.230E-02 0.310E-02
   0.154E+01 -.401E+01 0.219E+04   -.151E+01 0.385E+01 -.219E+04   -.399E-01 0.176E+00 -.509E+00   0.259E-03 -.226E-02 0.124E-01
   0.309E+01 0.160E+01 -.232E+04   -.362E+01 -.132E+01 0.232E+04   0.544E+00 -.291E+00 -.931E-01   -.666E-02 -.173E-02 0.610E-02
   -.810E+01 -.286E+01 -.619E+02   0.816E+01 0.259E+01 0.625E+02   -.615E-01 0.250E+00 -.575E+00   -.709E-02 0.134E-01 0.132E-01
   -.216E+02 0.961E+01 0.220E+04   0.228E+02 -.999E+01 -.220E+04   -.811E+00 0.233E+00 0.656E-01   -.383E-02 0.396E-02 0.963E-02
   -.616E+00 0.844E+00 -.859E+02   0.698E+00 -.812E+00 0.875E+02   -.945E-01 -.310E-01 -.155E+01   0.368E-02 -.704E-02 -.404E-02
   -.164E+02 0.160E+02 0.220E+04   0.171E+02 -.166E+02 -.220E+04   -.380E+00 0.359E+00 -.138E-01   -.515E-02 0.315E-02 0.896E-02
   -.192E+02 0.115E+02 0.220E+04   0.198E+02 -.119E+02 -.220E+04   -.360E+00 0.225E+00 0.163E-01   -.934E-02 0.376E-02 0.935E-02
   0.881E+01 0.920E+00 0.219E+04   -.915E+01 -.766E+00 -.219E+04   0.181E+00 -.146E+00 0.667E-01   0.617E-02 -.101E-02 0.766E-02
   0.618E+01 0.462E+01 -.205E+04   -.630E+01 -.477E+01 0.205E+04   0.121E+00 0.142E+00 0.174E+01   -.104E-02 -.300E-02 -.106E-01
   0.229E+01 -.640E+01 -.624E+02   -.161E+01 0.611E+01 0.629E+02   -.683E+00 0.300E+00 -.520E+00   0.445E-02 -.942E-02 -.164E-02
   0.924E+01 -.944E+00 -.205E+04   -.948E+01 0.880E+00 0.204E+04   0.229E+00 0.756E-01 0.164E+01   0.184E-01 -.878E-02 -.267E-02
   0.305E+01 0.385E+01 -.217E+02   -.306E+01 -.402E+01 0.221E+02   0.748E-02 0.195E+00 -.440E+00   0.629E-02 -.739E-02 -.363E-02
   0.152E+02 -.685E+01 0.202E+04   -.156E+02 0.687E+01 -.202E+04   0.261E+00 0.437E-01 -.132E+01   0.390E-02 -.472E-02 0.103E-02
   0.102E+02 0.103E+01 -.202E+04   -.105E+02 -.785E+00 0.201E+04   0.337E+00 -.249E+00 0.155E+01   0.764E-02 -.793E-02 -.318E-02
   -.208E+00 -.305E+01 0.298E+01   0.684E-01 0.313E+01 -.260E+01   0.140E+00 -.938E-01 -.375E+00   0.500E-02 0.145E-01 -.111E-01
   -.167E+01 -.102E+02 -.200E+04   0.180E+01 0.106E+02 0.200E+04   -.124E+00 -.445E+00 0.152E+01   -.180E-02 -.134E-01 0.113E-03
   0.216E+01 0.563E-01 -.643E+02   -.159E+01 -.173E+00 0.652E+02   -.577E+00 0.119E+00 -.886E+00   0.455E-02 0.671E-02 -.190E-02
   0.707E+01 0.673E+01 -.202E+04   -.751E+01 -.704E+01 0.201E+04   0.434E+00 0.300E+00 0.153E+01   0.148E-01 0.158E-01 -.199E-02
   -.112E+01 -.361E+01 -.203E+04   0.152E+01 0.371E+01 0.203E+04   -.390E+00 -.962E-01 0.185E+01   -.423E-02 0.214E-02 -.183E-01
   -.625E+01 -.103E+02 -.203E+04   0.598E+01 0.107E+02 0.202E+04   0.289E+00 -.385E+00 0.153E+01   -.128E-01 -.349E-02 -.305E-02
   -.720E+01 0.188E+01 -.203E+04   0.757E+01 -.203E+01 0.203E+04   -.375E+00 0.161E+00 0.189E+01   0.756E-02 -.559E-02 -.154E-01
   -.360E+01 0.116E+01 -.204E+04   0.371E+01 -.115E+01 0.204E+04   -.879E-01 -.856E-02 0.138E+01   -.253E-01 0.794E-02 0.543E-02
   -.782E+01 0.489E+01 0.202E+04   0.812E+01 -.500E+01 -.202E+04   -.214E+00 0.615E-01 -.157E+01   -.421E-02 0.160E-02 0.962E-04
   -.297E+01 0.549E+01 -.203E+04   0.293E+01 -.563E+01 0.203E+04   0.517E-01 0.146E+00 0.197E+01   -.482E-02 0.764E-02 -.144E-01
   0.374E+01 -.192E+01 0.201E+04   -.395E+01 0.205E+01 -.201E+04   0.165E+00 -.108E+00 -.154E+01   -.914E-03 0.127E-02 0.658E-02
   0.365E+01 -.239E+01 -.525E+02   -.417E+01 0.224E+01 0.534E+02   0.516E+00 0.151E+00 -.933E+00   0.787E-02 -.369E-02 0.552E-02
   -.322E+01 0.590E+01 -.388E+02   0.320E+01 -.548E+01 0.392E+02   0.247E-01 -.414E+00 -.437E+00   -.397E-02 -.531E-02 0.758E-03
   0.147E+01 0.669E+00 0.201E+04   -.151E+01 -.895E+00 -.201E+04   -.584E-02 0.196E+00 -.139E+01   0.296E-03 0.417E-02 0.371E-02
   -.776E+01 0.242E+01 0.202E+04   0.798E+01 -.238E+01 -.202E+04   -.125E+00 -.548E-01 -.127E+01   -.491E-02 -.144E-02 0.335E-02
   -.927E+01 -.270E+01 -.203E+04   0.936E+01 0.270E+01 0.203E+04   -.794E-01 0.241E-02 0.193E+01   -.905E-02 0.557E-02 -.146E-01
   0.175E+01 -.303E+01 -.443E+02   -.195E+01 0.328E+01 0.456E+02   0.205E+00 -.251E+00 -.127E+01   -.154E-02 0.532E-03 -.808E-03
   0.283E+01 0.121E+02 -.204E+04   -.274E+01 -.125E+02 0.204E+04   -.782E-01 0.317E+00 0.154E+01   -.204E-01 0.267E-01 0.995E-03
   0.116E+00 -.190E-01 -.291E+01   -.144E-12 -.711E-14 0.250E-11   -.847E-01 -.490E-02 0.284E+01   -.337E-02 -.247E-02 0.501E-01

 POSITION                                       TOTAL-FORCE (eV/Angst)
      1.37532      0.79404     10.00000        -0.150682      0.314357     -0.067090
      5.50129      7.94043     10.00000        -0.252818      0.179028     -0.178580
     11.00258      7.94043     10.00000         0.288232     -0.153908     -0.191608
     10.99938      6.35677     12.49260        -0.015433      0.004521      0.005099
      4.12597      5.55830     10.00000        -0.458286      0.050780     -0.150939
      9.59281      3.96439     12.49487         0.003341      0.009460      0.001089
     12.38223      3.96739     12.40727         0.001723     -0.017946     -0.004278
      0.00961      0.00801     15.02773        -0.000535     -0.005704     -0.001615
     10.99362      1.57789     12.45453         0.000906      0.004595      0.003227
      4.12597      0.79404     10.00000        -0.133243      0.169336     -0.046421
      4.11407      3.95939     12.50108        -0.009121     -0.013569      0.004106
      2.77324      0.01033     14.93900         0.004053     -0.007743      0.012551
     15.12083      8.73405     12.46053        -0.004676     -0.000696     -0.001046
      6.87661      5.55830     10.00000         0.025312     -0.043147     -0.024419
      5.52137      6.35382     12.54752         0.009203     -0.003409      0.011985
      5.50923      4.76213     15.03958         0.006334     -0.009000      0.008285
      8.25194      7.94043     10.00000        -0.008165      0.015113      0.060641
      8.24108      0.01200     15.05014         0.008037     -0.005859      0.003996
     12.37944      8.72587     12.51308        -0.005603     -0.006573     -0.000292
      6.87661      0.79404     10.00000         0.370431     -0.146895     -0.105855
      5.49457      1.58126     12.54575        -0.008770     -0.005410      0.013025
      8.25194      3.17617     10.00000         0.253779     -0.236737     -0.060962
      9.62726      5.55830     10.00000         0.272279     -0.166763     -0.192365
      5.50129      3.17617     10.00000        -0.156215      0.007155     -0.128828
      5.50583     -0.00887     14.89961         0.000042     -0.012838      0.007704
      6.89315      8.73309     12.51280        -0.000433     -0.003471     -0.000923
      4.12222      2.39105     14.89704        -0.001324      0.004077      0.003287
      2.74641      1.56555     12.46378         0.004408      0.014052     -0.003166
      2.75065      3.17617     10.00000        -0.130999      0.063069      0.202797
      2.73354      4.78035     14.84970         0.003030     -0.011014      0.003966
     13.75506      6.35149     12.43653         0.004528      0.007846     -0.007863
      1.38028      2.41566     14.83693         0.003855      0.006393     -0.000617
      6.87460      3.97049     12.52081        -0.002612      0.009824      0.004707
      4.10753      7.14215     14.87688         0.002551      0.012195     -0.000977
      6.89219      2.38872     14.88515         0.000124      0.009818      0.008921
      9.62706      2.40384     14.87811         0.001647      0.006754      0.003836
      6.89904      7.14205     14.88685         0.006742      0.003073      0.009497
     11.00981      4.76158     14.86819        -0.002536      0.004148      0.006598
     12.37790      5.55830     10.00000         0.079589     -0.044436      0.152444
      9.63834      7.13081     14.86298         0.005381      0.006120      0.001624
      9.62726      0.79404     10.00000        -0.054101      0.023127      0.271765
      9.59651      8.72837     12.50677         0.007424     -0.002921      0.008834
      8.24044      1.58729     12.48915        -0.001001     -0.002847     -0.007467
     13.75323      7.94043     10.00000        -0.045046     -0.025226      0.238113
     11.00258      3.17617     10.00000         0.085851     -0.008939      0.121633
      8.26601      4.77098     14.87178        -0.004153      0.001931      0.001986
      8.24325      6.36201     12.49449         0.001826     -0.001587     -0.000113
     12.37899      7.12978     14.88312        -0.004875      0.009867      0.003707
    total drift:                                0.027881     -0.026418     -0.019467

  FREE ENERGIE OF THE ION-ELECTRON SYSTEM (eV)
  free  energy   TOTEN  =      -191.70882269 eV

  energy  without entropy=     -191.50855426  energy(sigma->0) =     -191.60868848

 d Force = 0.1138407E-03[ 0.101E-04, 0.218E-03]  d Energy = 0.1009564E-03 0.129E-04
 d Force = 0.1961026E+02[ 0.196E+02, 0.196E+02]  d Ewald  = 0.1961026E+02-0.859E-07

 stress matrix after NEB project (eV)
      0.00000      0.00000      0.00000
      0.00000      0.00000      0.00000
      0.00000      0.00000      0.00000
  FORCES: max atom, RMS     0.018529    0.009407
  FORCE total and by dimension    0.065177    0.017946
  Stress total and by dimension    0.000000    0.000000

 reached required accuracy - stopping structural energy minimisation