 vasp.5.4.1 24Jun15 (build Mar 14 2019 10:18:33) complex

 executed on INTEL-19.0.2+OPENMPI date 2023.01.31  00:48:19

 INCAR:
 POTCAR:    PAW_PBE Au 04Oct2007
 POTCAR:    PAW_PBE Pd 04Jan2005
 POTCAR:    PAW_PBE Au 04Oct2007

 POTCAR:    PAW_PBE Pd 04Jan2005

 Optimization of the real space projectors (new method)

 maximal supplied QI-value         = 15.12
 optimisation between [QCUT,QGAM] = [ 10.13, 20.41] = [ 28.73,116.64] Ry
 Optimized for a Real-space Cutoff    1.51 Angstroem

   l    n(q)    QCUT    max X(q) W(low)/X(q) W(high)/X(q)  e(spline)
   2      8    10.129    60.898    0.46E-03    0.46E-03    0.14E-06
   2      8    10.129    58.894    0.47E-03    0.47E-03    0.14E-06
   0      9    10.129   109.617    0.16E-03    0.11E-03    0.54E-07
   0      9    10.129    75.026    0.15E-03    0.11E-03    0.52E-07
   1      9    10.129    16.344    0.96E-04    0.15E-03    0.14E-06
   1      9    10.129    10.160    0.81E-04    0.12E-03    0.11E-06
 Optimization of the real space projectors (new method)

 maximal supplied QI-value         = 14.36
 optimisation between [QCUT,QGAM] = [ 10.20, 20.39] = [ 29.12,116.47] Ry
 Optimized for a Real-space Cutoff    1.51 Angstroem

   l    n(q)    QCUT    max X(q) W(low)/X(q) W(high)/X(q)  e(spline)
   2      8    10.197    59.108    0.26E-03    0.14E-03    0.96E-07
   2      8    10.197    58.101    0.27E-03    0.14E-03    0.98E-07
   0      9    10.197   102.235    0.54E-04    0.60E-05    0.72E-07
   0      9    10.197    58.388    0.52E-04    0.60E-05    0.68E-07
   1      9    10.197    22.191    0.18E-03    0.25E-03    0.79E-07
   1      9    10.197    15.590    0.15E-03    0.21E-03    0.69E-07
  PAW_PBE Au 04Oct2007                  :
  PAW_PBE Pd 04Jan2005                  :

 POSCAR: Au Pd
  positions in cartesian coordinates
 exchange correlation table for  LEXCH =        8
   RHO(1)=    0.500       N(1)  =     2000
   RHO(2)=  100.500       N(2)  =     4000

 VTST: version 3.2, (02/03/18)

 CHAIN: initializing optimizer

 OPT: Using VASP Conjugate-Gradient optimizer
 CHAIN: Read ICHAIN            0

 POSCAR: Au Pd
  positions in cartesian coordinates

 ion  position               nearest neighbor table
   1  0.333  0.333  0.408-  38 2.75  26 2.75  28 2.75  37 2.75   2 2.75  22 2.75  32 2.75  20 2.75
                            14 2.75
   2  0.083  0.583  0.408-  17 2.75   4 2.75   8 2.75   1 2.75  32 2.75  26 2.75   6 2.75  14 2.75
                            30 2.75
   3  0.667  0.417  0.500-  22 2.75   9 2.75  23 2.75   5 2.75  11 2.75  40 2.75  41 2.75  31 2.75
                            38 2.75  46 2.75  45 2.75  44 2.75
   4  0.833  0.833  0.408-  34 2.75   6 2.75   2 2.75  37 2.75  42 2.75  19 2.75   8 2.75  30 2.75
                            47 2.75
   5  0.917  0.167  0.500-  42 2.75  29 2.75   9 2.75  31 2.75  34 2.75  35 2.75   3 2.75  41 2.75
                            12 2.75  45 2.75  36 2.75  13 2.75
   6  0.833  0.583  0.408-  30 2.75  19 2.75   4 2.75  32 2.75  45 2.75   2 2.75  46 2.75  31 2.75
                            40 2.75
   7  0.000  0.500  0.592-  30 2.75  14 2.75  10 2.75  15 2.75  13 2.75  48 2.75  44 2.75  25 2.75
                            31 2.75
   8  0.083  0.833  0.408-  35 2.75  26 2.75   2 2.75  36 2.75  42 2.75  33 2.75   4 2.75  17 2.75
                            34 2.75
   9  0.750  0.250  0.592-   3 2.75   5 2.75  16 2.75  23 2.75  29 2.75  44 2.75  13 2.75  24 2.75
                            41 2.75
  10  0.000  0.750  0.592-  34 2.75  17 2.75   7 2.75  25 2.75  29 2.75  16 2.75  39 2.75  48 2.75
                            30 2.75
  11  0.417  0.667  0.500-  26 2.75  23 2.75  39 2.75  18 2.75  35 2.75  38 2.75   3 2.75  17 2.75
                            40 2.75  33 2.75  43 2.75  46 2.75
  12  0.167  0.167  0.500-  36 2.75  27 2.75  13 2.75  14 2.75  31 2.75  35 2.75  18 2.75   5 2.75
                            20 2.75  32 2.75  15 2.75  28 2.75
  13  0.000  0.250  0.592-  31 2.75  12 2.75  27 2.75  29 2.75   7 2.75  44 2.75   9 2.75  15 2.75
                             5 2.75
  14  0.167  0.417  0.500-  32 2.75  15 2.75   7 2.75  17 2.75  20 2.75  30 2.75  12 2.75  31 2.75
                            38 2.75   2 2.75   1 2.75  25 2.75
  15  0.250  0.250  0.592-  14 2.75  20 2.75   7 2.75  21 2.75  25 2.75  27 2.75  13 2.75  24 2.75
                            12 2.75
  16  0.750  0.000  0.592-  41 2.75  34 2.75  24 2.75   9 2.75  10 2.75  48 2.75  29 2.75  21 2.75
                            47 2.75
  17  0.167  0.667  0.500-   2 2.75  25 2.75  10 2.75  14 2.75  34 2.75  35 2.75  38 2.75  30 2.75
                            11 2.75   8 2.75  26 2.75  39 2.75
  18  0.417  0.917  0.500-  33 2.75  43 2.75  27 2.75  11 2.75  12 2.75  40 2.75  20 2.75  35 2.75
                            47 2.75  28 2.75  21 2.75  19 2.75
  19  0.583  0.833  0.408-  47 2.75  28 2.75  37 2.75  46 2.75   6 2.75  33 2.75   4 2.75  40 2.75
                            18 2.75
  20  0.417  0.167  0.500-  28 2.75  21 2.75  15 2.75  14 2.75  18 2.75  38 2.75  47 2.75  41 2.75
                            12 2.75   1 2.75  37 2.75  24 2.75
  21  0.500  0.000  0.592-  20 2.75  47 2.75  24 2.75  43 2.75  15 2.75  48 2.75  27 2.75  16 2.75
                            18 2.75
  22  0.583  0.333  0.408-   3 2.75  26 2.75  37 2.75  42 2.75  46 2.75  45 2.75   1 2.75  41 2.75
                            38 2.75
  23  0.500  0.500  0.592-  11 2.75   3 2.75   9 2.75  24 2.75  39 2.75  43 2.75  25 2.75  44 2.75
                            38 2.75
  24  0.500  0.250  0.592-  38 2.75  41 2.75  23 2.75  25 2.75  16 2.75  21 2.75   9 2.75  15 2.75
                            20 2.75
  25  0.250  0.500  0.592-  17 2.75  38 2.75  10 2.75  24 2.75  15 2.75  39 2.75  23 2.75   7 2.75
                            14 2.75
  26  0.333  0.583  0.408-  11 2.75   8 2.75   1 2.75  22 2.75  33 2.75   2 2.75  46 2.75  38 2.75
                            17 2.75
  27  0.250  0.000  0.592-  12 2.75  18 2.75  15 2.75  13 2.75  39 2.75  43 2.75  21 2.75  29 2.75
                            35 2.75
  28  0.333  0.083  0.408-  20 2.75  19 2.75   1 2.75  32 2.75  33 2.75  36 2.75  37 2.75  18 2.75
                            12 2.75
  29  0.000  0.000  0.592-   5 2.75  35 2.75  10 2.75  13 2.75   9 2.75  39 2.75  16 2.75  27 2.75
                            34 2.75
  30  0.917  0.667  0.500-   6 2.75   7 2.75  48 2.75  31 2.75  34 2.75  47 2.75  14 2.75  17 2.75
                            40 2.75   4 2.75  10 2.75   2 2.75
  31  0.917  0.417  0.500-  45 2.75  13 2.75  44 2.75  30 2.75  40 2.75  12 2.75   5 2.75   3 2.75
                            14 2.75   6 2.75  32 2.75   7 2.75
  32  0.083  0.333  0.408-  14 2.75   6 2.75   2 2.75  28 2.75  36 2.75   1 2.75  45 2.75  12 2.75
                            31 2.75
  33  0.333  0.833  0.408-  18 2.75  26 2.75  28 2.75  36 2.75  46 2.75   8 2.75  19 2.75  11 2.75
                            35 2.75
  34  0.917  0.917  0.500-   4 2.75  10 2.75  16 2.75   5 2.75  17 2.75  30 2.75  41 2.75  35 2.75
                            47 2.75  42 2.75  29 2.75   8 2.75
  35  0.167  0.917  0.500-   8 2.75  39 2.75  29 2.75  12 2.75  17 2.75   5 2.75  11 2.75  34 2.75
                            18 2.75  36 2.75  33 2.75  27 2.75
  36  0.083  0.083  0.408-  12 2.75   8 2.75  32 2.75  33 2.75  45 2.75  42 2.75  28 2.75  35 2.75
                             5 2.75
  37  0.583  0.083  0.408-  41 2.75   4 2.75  19 2.75  22 2.75   1 2.75  28 2.75  42 2.75  47 2.75
                            20 2.75
  38  0.417  0.417  0.500-   1 2.75  24 2.75  25 2.75  20 2.75  11 2.75  17 2.75  41 2.75  14 2.75
                             3 2.75  26 2.75  22 2.75  23 2.75
  39  0.250  0.750  0.592-  35 2.75  11 2.75  25 2.75  27 2.75  29 2.75  23 2.75  10 2.75  43 2.75
                            17 2.75
  40  0.667  0.667  0.500-  46 2.75  44 2.75  43 2.75   3 2.75  18 2.75  31 2.75  47 2.75  30 2.75
                            11 2.75  19 2.75   6 2.75  48 2.75
  41  0.667  0.167  0.500-  37 2.75  16 2.75  24 2.75  34 2.75   3 2.75  38 2.75  47 2.75  20 2.75
                             5 2.75  22 2.75  42 2.75   9 2.75
  42  0.833  0.083  0.408-   5 2.75   4 2.75   8 2.75  22 2.75  45 2.75  37 2.75  36 2.75  34 2.75
                            41 2.75
  43  0.500  0.750  0.592-  18 2.75  40 2.75  23 2.75  27 2.75  21 2.75  44 2.75  39 2.75  48 2.75
                            11 2.75
  44  0.750  0.500  0.592-  40 2.75  31 2.75   9 2.75  13 2.75  43 2.75  48 2.75   7 2.75  23 2.75
                             3 2.75
  45  0.833  0.333  0.408-  31 2.75   6 2.75  36 2.75  42 2.75  46 2.75  32 2.75  22 2.75   5 2.75
                             3 2.75
  46  0.583  0.583  0.408-  40 2.75  22 2.75  33 2.75  19 2.75  45 2.75  26 2.75   6 2.75   3 2.75
                            11 2.75
  47  0.667  0.917  0.500-  19 2.75  48 2.75  21 2.75  30 2.75  40 2.75  41 2.75  20 2.75  34 2.75
                            18 2.75  37 2.75   4 2.75  16 2.75
  48  0.750  0.750  0.592-  47 2.75  30 2.75  21 2.75   7 2.75  44 2.75  16 2.75  10 2.75  43 2.75
                            40 2.75

  LATTYP: Found a hexagonal cell.
 ALAT       =    11.0025815153
 C/A-ratio  =     2.2260035120

  Lattice vectors:

 A1 = (   5.5012907576,  -9.5285150994,   0.0000000000)
 A2 = ( -11.0025815153,   0.0000000000,   0.0000000000)
 A3 = (   0.0000000000,   0.0000000000, -24.4917850943)

Analysis of symmetry for initial positions (statically):
 Subroutine PRICEL returns:
 Original cell was already a primitive cell.

 Routine SETGRP: Setting up the symmetry group for a
 hexagonal supercell.

 Subroutine GETGRP returns: Found  1 space group operations
 (whereof  1 operations were pure point group operations)
 out of a pool of 24 trial point group operations.

The static configuration has the point symmetry C_1 .

Analysis of symmetry for dynamics (positions and initial velocities):
 Subroutine PRICEL returns:
 Original cell was already a primitive cell.

[...]

The dynamic configuration has the point symmetry C_1 .

Analysis of constrained symmetry for selective dynamics:
 Subroutine PRICEL returns:
 Original cell was already a primitive cell.

 Routine SETGRP: Setting up the symmetry group for a
 hexagonal supercell.

 Subroutine GETGRP returns: Found  1 space group operations
 (whereof  1 operations were pure point group operations)
 out of a pool of 24 trial point group operations.

The constrained configuration has the point symmetry C_1 .

 KPOINTS: Automatic mesh

Automatic generation of k-mesh.
Space group operators:
 irot       det(A)        alpha          n_x          n_y          n_z        tau_x        tau_y        tau_z
    1     1.000000     0.000000     1.000000     0.000000     0.000000     0.000000     0.000000     0.000000

 Subroutine IBZKPT returns following result:

 Found      6 irreducible k-points:

 Following reciprocal coordinates:
            Coordinates               Weight
  0.250000  0.250000  0.000000     16.000000
  0.000000  0.250000  0.000000     16.000000
 -0.250000  0.000000  0.000000     16.000000
 -0.250000  0.250000  0.000000     16.000000
  0.500000 -0.250000  0.000000     16.000000
[...]
 dipolmoment           0.000000      0.000000      0.025145 electrons x Angstroem
 Tr[quadrupol]    -10281.697688

 energy correction for charged system         0.000000 eV
 dipol+quadrupol energy correction           -0.000022 eV
 added-field ion interaction         -0.188244 eV  (added to PSCEN)

  free energy =  -0.192265609042E+03  energy without entropy=  -0.192039026559E+03

 average (electrostatic) potential at core
  the test charge radii are     1.2098  1.1199
  (the norm of the test charge is              1.0000)
       1 -73.9866       2 -74.0667       3 -74.1259       4 -74.0165       5 -74.1009
       6 -73.9513       7 -73.9527       8 -73.9476       9 -73.9843      10 -73.9295
      11 -74.1044      12 -74.1729      13 -73.9290      14 -74.1840      15 -73.9400
      16 -73.9494      17 -74.1651      18 -74.1990      19 -73.9562      20 -74.1531
      21 -73.9248      22 -73.9357      23 -73.9000      24 -74.0716      25 -80.8062
      26 -80.7602      27 -80.7726      28 -80.8014      29 -80.8003      30 -80.8776
      31 -80.8941      32 -80.8027      33 -80.7460      34 -80.9381      35 -80.9437
      36 -80.8001      37 -80.7889      38 -80.8544      39 -80.8050      40 -80.8908
      41 -80.8641      42 -80.7716      43 -80.8162      44 -80.7943      45 -80.7837
      46 -80.7744      47 -80.9199      48 -80.8319

 E-fermi :  -1.0903     XC(G=0):  -4.5463     alpha+bet : -4.5215

[...]

 k-point     6 :      -0.2500    0.5000    0.0000
  band No.  band energies     occupation
      1      -8.5325      2.00000
      2      -8.1186      2.00000
      3      -7.9338      2.00000
      4      -7.4897      2.00000
      5      -7.3321      2.00000
      6      -7.0592      2.00000
      7      -6.9928      2.00000
      8      -6.9613      2.00000
      9      -6.8483      2.00000
     10      -6.8110      2.00000
     11      -6.7912      2.00000
     12      -6.7161      2.00000
     13      -6.6944      2.00000
     14      -6.6499      2.00000
     15      -6.6212      2.00000
     16      -6.5695      2.00000
     17      -6.5563      2.00000
     18      -6.5449      2.00000
     19      -6.5052      2.00000
     20      -6.4625      2.00000
     21      -6.4028      2.00000
     22      -6.3739      2.00000
     23      -6.3378      2.00000
     24      -6.3252      2.00000
     25      -6.2910      2.00000
     26      -6.2632      2.00000
     27      -6.2436      2.00000
     28      -6.2162      2.00000
     29      -6.1930      2.00000
     30      -6.1556      2.00000
     31      -6.1319      2.00000
     32      -6.1236      2.00000
     33      -6.0901      2.00000
     34      -6.0557      2.00000
     35      -6.0329      2.00000
     36      -5.9869      2.00000
     37      -5.9767      2.00000
     38      -5.9575      2.00000
     39      -5.9389      2.00000
     40      -5.9183      2.00000
     41      -5.8971      2.00000
     42      -5.8625      2.00000
     43      -5.8096      2.00000
     44      -5.7950      2.00000
     45      -5.7590      2.00000
     46      -5.7501      2.00000
     47      -5.7262      2.00000
     48      -5.6873      2.00000
     49      -5.6683      2.00000
     50      -5.6451      2.00000
     51      -5.6014      2.00000
     52      -5.5888      2.00000
     53      -5.5478      2.00000
     54      -5.5043      2.00000
     55      -5.4758      2.00000
     56      -5.4394      2.00000
     57      -5.4153      2.00000
     58      -5.3832      2.00000
     59      -5.3573      2.00000
     60      -5.3167      2.00000
[...]
    292       4.1876      0.00000
    293       4.4925      0.00000
    294       4.5442      0.00000
    295       4.5842      0.00000
    296       4.6302      0.00000
    297       4.6652      0.00000
    298       4.8380      0.00000
    299       4.9040      0.00000
    300       4.9529      0.00000
    301       5.0408      0.00000
    302       5.0543      0.00000
    303       5.0689      0.00000
    304       5.1312      0.00000
    305       5.1556      0.00000
    306       5.2513      0.00000

 soft charge-density along one line, spin component           1
         0         1         2         3         4         5         6         7         8         9
 total charge-density along one line

------------------------ aborting loop because EDIFF is reached ----------------------------------------

 VOLUME and BASIS-vectors are now :
  energy-cutoff  :      400.00
  volume of cell :     2567.68
      direct lattice vectors                 reciprocal lattice vectors
    11.002581515  0.000000000  0.000000000     0.090887761 -0.052474073  0.000000000
     5.501290758  9.528515099  0.000000000     0.000000000  0.104948147  0.000000000
     0.000000000  0.000000000 24.491785094     0.000000000  0.000000000  0.040830017

  length of vectors
    11.002581515 11.002581515 24.491785094     0.104948147  0.104948147  0.040830017

 FORCES acting on ions
    electron-ion (+dipol)            ewald-force                    non-local-force                 convergence-correction
   0.345E+01 0.976E+01 0.222E+04   -.348E+01 -.995E+01 -.222E+04   -.942E-02 0.115E+00 0.234E+00   -.535E-02 -.815E-02 -.870E-04
   -.248E+01 0.136E+02 0.222E+04   0.253E+01 -.140E+02 -.222E+04   -.165E-01 0.134E+00 -.357E-01   -.902E-02 0.178E-02 0.947E-02
   0.658E+01 0.918E+01 0.166E+02   -.607E+01 -.894E+01 -.170E+02   -.509E+00 -.231E+00 0.413E+00   0.187E-02 0.138E-02 0.573E-02
   0.596E+00 -.211E+02 0.222E+04   -.522E+00 0.224E+02 -.222E+04   -.708E-01 -.839E+00 -.642E+00   -.995E-03 0.408E-02 0.120E-01
   -.402E+00 -.771E+01 0.496E+02   0.152E+00 0.708E+01 -.506E+02   0.256E+00 0.632E+00 0.994E+00   -.389E-02 -.942E-02 -.693E-02
   0.103E+02 0.239E+02 0.222E+04   -.108E+02 -.249E+02 -.222E+04   0.334E+00 0.611E+00 -.467E+00   0.153E-01 0.524E-02 0.644E-02
   0.102E+02 -.114E+02 -.225E+04   -.109E+02 0.120E+02 0.225E+04   0.679E+00 -.581E+00 0.283E+00   0.459E-02 0.330E-02 -.196E-01
   -.174E+02 -.158E+02 0.223E+04   0.183E+02 0.164E+02 -.223E+04   -.645E+00 -.434E+00 -.323E+00   -.204E-01 0.370E-02 0.302E-02
   -.620E+01 0.967E+00 -.225E+04   0.660E+01 -.114E+01 0.225E+04   -.420E+00 0.164E+00 0.251E-01   0.118E-01 0.155E-01 0.887E-02
   -.703E+01 -.805E+01 -.225E+04   0.744E+01 0.830E+01 0.225E+04   -.391E+00 -.230E+00 0.395E+00   -.162E-01 -.266E-01 -.163E-01
   0.488E+00 0.639E+01 0.484E+02   -.502E+00 -.623E+01 -.490E+02   0.581E-02 -.164E+00 0.627E+00   0.105E-01 0.350E-03 0.199E-01
   -.241E+01 -.105E+02 0.295E+02   0.191E+01 0.104E+02 -.305E+02   0.491E+00 0.851E-01 0.105E+01   0.498E-02 0.122E-01 0.433E-03
   0.101E+02 0.748E+01 -.225E+04   -.103E+02 -.791E+01 0.226E+04   0.252E+00 0.425E+00 -.152E+00   -.486E-03 0.356E-02 -.120E-02
   0.617E+01 0.116E+02 -.414E+02   -.640E+01 -.113E+02 0.416E+02   0.239E+00 -.353E+00 -.196E+00   -.136E-01 0.137E-01 -.102E-01
   0.434E+01 0.512E+01 -.231E+04   -.425E+01 -.527E+01 0.231E+04   -.929E-01 0.160E+00 -.263E+00   0.707E-02 -.521E-02 -.196E-01
   -.694E+01 0.734E+01 -.220E+04   0.714E+01 -.767E+01 0.220E+04   -.182E+00 0.340E+00 0.405E+00   -.230E-01 -.522E-02 -.156E-01
   0.416E+01 -.555E+00 -.168E+02   -.391E+01 0.625E+00 0.175E+02   -.223E+00 -.722E-01 -.631E+00   -.268E-01 0.367E-02 -.107E-01
   -.627E+01 -.926E+01 0.166E+02   0.605E+01 0.888E+01 -.165E+02   0.205E+00 0.376E+00 -.112E+00   0.187E-01 0.243E-02 0.540E-02
   0.152E+02 -.121E+02 0.223E+04   -.159E+02 0.124E+02 -.223E+04   0.409E+00 -.165E+00 -.301E+00   0.191E-01 0.131E-01 0.600E-02
   0.203E+01 -.105E+01 0.172E+00   -.814E+00 0.798E+00 -.126E+01   -.121E+01 0.260E+00 0.110E+01   0.582E-02 -.908E-02 -.871E-02
   0.398E+01 0.193E+02 -.227E+04   -.441E+01 -.204E+02 0.227E+04   0.419E+00 0.108E+01 -.528E-01   0.745E-02 -.639E-02 -.534E-02
   -.733E+01 0.383E+01 0.223E+04   0.752E+01 -.389E+01 -.223E+04   -.937E-01 0.374E-01 -.366E+00   -.374E-02 -.155E-01 -.508E-02
   -.650E+01 -.174E+02 -.226E+04   0.628E+01 0.182E+02 0.226E+04   0.205E+00 -.752E+00 -.268E-01   0.224E-01 0.171E-02 0.957E-02
   -.719E+01 -.164E+01 -.222E+04   0.699E+01 0.240E+01 0.222E+04   0.198E+00 -.744E+00 0.397E+00   -.685E-02 -.102E-01 -.557E-02
   -.950E+01 -.139E+02 -.199E+04   0.977E+01 0.138E+02 0.199E+04   -.274E+00 0.115E+00 0.148E+01   -.546E-02 -.602E-02 0.203E-02
   -.138E+02 -.135E+01 0.203E+04   0.143E+02 0.145E+01 -.203E+04   -.265E+00 -.192E-01 -.146E+01   -.128E-01 -.630E-02 -.273E-02
   0.116E+02 0.170E+02 -.196E+04   -.120E+02 -.173E+02 0.196E+04   0.380E+00 0.336E+00 0.131E+01   0.102E-01 -.296E-02 0.202E-02
   0.120E+02 -.156E+01 0.204E+04   -.123E+02 0.148E+01 -.204E+04   0.135E+00 0.356E-01 -.137E+01   0.110E-01 0.835E-02 0.590E-03
   -.807E+01 0.968E+01 -.195E+04   0.857E+01 -.100E+02 0.194E+04   -.506E+00 0.340E+00 0.161E+01   0.153E-01 0.531E-02 -.824E-02
   -.119E+01 0.528E+00 -.261E+02   0.368E+00 -.223E+00 0.267E+02   0.826E+00 -.310E+00 -.504E+00   -.276E-02 0.399E-02 -.867E-02
   -.510E+01 0.915E+01 0.134E+02   0.494E+01 -.864E+01 -.138E+02   0.164E+00 -.503E+00 0.413E+00   0.135E-01 0.746E-02 0.108E-01
   0.126E+02 0.185E+02 0.203E+04   -.131E+02 -.188E+02 -.203E+04   0.328E+00 0.126E+00 -.165E+01   0.556E-02 0.265E-02 0.236E-02
   0.170E+01 -.783E+01 0.204E+04   -.194E+01 0.789E+01 -.204E+04   0.199E+00 -.377E-01 -.152E+01   0.204E-02 0.797E-02 -.201E-02
   0.460E+01 -.267E+01 0.108E+02   -.477E+01 0.309E+01 -.107E+02   0.185E+00 -.412E+00 -.328E-01   -.155E-02 -.640E-02 -.186E-01
   -.970E+00 -.508E+01 0.416E+02   0.787E+00 0.521E+01 -.412E+02   0.187E+00 -.143E+00 -.425E+00   -.171E-01 0.103E-01 0.151E-02
   -.745E+01 -.844E+01 0.205E+04   0.755E+01 0.838E+01 -.204E+04   -.159E-02 0.131E+00 -.169E+01   -.499E-02 0.725E-02 -.122E-02
   -.275E+01 -.177E+01 0.203E+04   0.301E+01 0.152E+01 -.202E+04   -.182E+00 0.196E+00 -.178E+01   0.575E-03 -.557E-02 0.184E-02
   -.571E+01 0.813E+01 -.145E+02   0.565E+01 -.819E+01 0.146E+02   0.742E-01 0.627E-01 -.740E-01   -.876E-02 -.663E-02 -.190E-03
   -.616E+01 -.913E+01 -.199E+04   0.628E+01 0.964E+01 0.199E+04   -.138E+00 -.494E+00 0.164E+01   0.103E-01 -.797E-02 -.115E-01
   -.202E+01 0.427E+00 0.217E+02   0.255E+01 -.599E+00 -.208E+02   -.539E+00 0.165E+00 -.852E+00   0.122E-01 0.861E-02 0.102E-02
   0.175E+01 -.246E+01 0.140E+02   -.195E+01 0.192E+01 -.148E+02   0.208E+00 0.541E+00 0.827E+00   -.132E-01 -.716E-02 -.622E-02
   -.213E+01 -.983E+01 0.203E+04   0.206E+01 0.993E+01 -.203E+04   0.742E-01 -.289E-01 -.173E+01   -.647E-02 -.693E-02 -.114E-02
   0.231E+01 0.494E+01 -.198E+04   -.218E+01 -.489E+01 0.198E+04   -.147E+00 -.356E-01 0.149E+01   0.123E-01 -.135E-01 0.207E-03
   0.423E+01 -.124E+02 -.196E+04   -.388E+01 0.129E+02 0.195E+04   -.352E+00 -.517E+00 0.163E+01   0.820E-03 0.545E-02 0.541E-02
   -.934E+01 0.885E+01 0.204E+04   0.965E+01 -.900E+01 -.204E+04   -.193E+00 0.541E-01 -.157E+01   0.278E-02 -.665E-02 -.157E-02
   0.644E+01 0.264E+01 0.204E+04   -.656E+01 -.250E+01 -.204E+04   0.133E-01 -.120E+00 -.162E+01   0.723E-02 -.464E-02 -.622E-03
   0.104E+01 -.833E+01 0.249E+01   -.501E+00 0.812E+01 -.247E+01   -.546E+00 0.211E+00 -.131E-01   0.710E-03 -.604E-02 -.974E-02
   0.852E+01 0.321E+01 -.196E+04   -.905E+01 -.345E+01 0.196E+04   0.534E+00 0.245E+00 0.206E+01   -.302E-03 -.856E-02 -.184E-01
   -.366E-02 0.250E+00 0.155E+01   -.707E-12 -.378E-12 -.227E-12   -.123E-01 -.209E+00 -.149E+01   0.305E-01 -.380E-01 -.101E+00

 POSITION                                       TOTAL-FORCE (eV/Angst)
      5.50129      3.17617     10.00000        -0.043322     -0.086223     -0.243429
      4.12597      5.55830     10.00000         0.025676     -0.193109     -0.227294
      9.64601      3.97125     12.42336        -0.006573      0.004670     -0.002096
     13.75323      7.94043     10.00000         0.001678      0.370007     -0.065352
     10.99190      1.57276     12.38642         0.001868     -0.010493      0.002659
     12.37790      5.55830     10.00000        -0.178628     -0.390879     -0.103410
      2.72221      4.78770     14.96680        -0.003863      0.010387      0.011824
      5.50129      7.94043     10.00000         0.295998      0.228255     -0.231607
      9.63383      2.39376     14.96690         0.000389      0.004103      0.001249
      4.13574      7.16210     14.93774         0.000221     -0.007261      0.009788
      8.25866      6.34651     12.39353         0.002188     -0.003932      0.004999
      2.73789      1.58278     12.40730        -0.006392      0.001682     -0.001663
      1.36656      2.37747     14.98847        -0.008858     -0.000530      0.001878
      4.11646      3.96286     12.49562        -0.007919     -0.005634     -0.004947
      4.11379      2.37700     15.08977        -0.001414      0.006836      0.006069
      8.25170     -0.00748     14.90005        -0.009403      0.003679      0.006319
      5.50262      6.35434     12.47322         0.004564      0.002321     -0.008000
      9.63326      8.71978     12.43013         0.005214     -0.008278      0.000733
     11.00258      7.94043     10.00000        -0.222222      0.152779     -0.223026
      5.53776      1.56687     12.43515         0.008643     -0.003468      0.001736
      5.47783     -0.02913     14.99949        -0.001307      0.005309      0.006285
      8.25194      3.17617     10.00000         0.095916     -0.033751     -0.127910
      8.23995      4.80989     14.96306        -0.001043      0.010033      0.003525
      6.86649      2.40205     14.95354        -0.006515     -0.002880      0.003496
      5.49530      4.77916     14.86127        -0.006820      0.012930      0.003575
      6.87661      5.55830     10.00000         0.182709      0.077061      0.161900
      2.73439     -0.00952     14.80885        -0.009892      0.004091      0.001650
      4.12597      0.79404     10.00000        -0.144517     -0.034463      0.116548
      0.01659      0.00510     14.78373         0.012323      0.004553     -0.007442
     13.73918      6.35337     12.48288        -0.003194     -0.000678      0.005401
     12.37976      3.98275     12.43108         0.011095      0.011153     -0.004314
      2.75065      3.17617     10.00000        -0.116326     -0.155714      0.238998
      8.25194      7.94043     10.00000        -0.038198      0.030298      0.039758
     15.11059      8.73365     12.43525         0.006128      0.002778      0.002406
      6.86127      8.73108     12.40156        -0.013244      0.002293      0.002765
      1.37532      0.79404     10.00000         0.091653      0.071513      0.021696
      6.87661      0.79404     10.00000         0.077902     -0.057445      0.223432
      6.88840      3.96017     12.46782         0.003833      0.000408     -0.008037
      6.88680      7.18458     14.81456        -0.005247      0.003447     -0.001928
     11.03087      6.34809     12.42371         0.003787      0.001571      0.000903
      8.25817      1.56848     12.42777        -0.000462     -0.006069     -0.000570
      9.62726      0.79404     10.00000        -0.010604      0.059755      0.168725
      9.62100      7.15176     14.80765         0.001379     -0.002562     -0.004861
     10.99707      4.78852     14.79940        -0.005297      0.008265     -0.007330
     11.00258      3.17617     10.00000         0.118938     -0.103616      0.143395
      9.62726      5.55830     10.00000        -0.096869      0.016970      0.081502
     12.40728      8.72348     12.44390        -0.002813      0.000180      0.003034
     12.34440      7.14315     14.79476        -0.001163     -0.000344     -0.003034
    total drift:                                0.014577      0.002459     -0.039178

  FREE ENERGIE OF THE ION-ELECTRON SYSTEM (eV)
  free  energy   TOTEN  =      -192.26560904 eV

  energy  without entropy=     -192.03902656  energy(sigma->0) =     -192.15231780

 d Force = 0.2997908E-03[-0.108E-04, 0.610E-03]  d Energy = 0.2637701E-03 0.360E-04
 d Force = 0.4053682E+02[ 0.405E+02, 0.405E+02]  d Ewald  = 0.4053682E+02-0.237E-05

 stress matrix after NEB project (eV)
      0.00000      0.00000      0.00000
      0.00000      0.00000      0.00000
      0.00000      0.00000      0.00000
  FORCES: max atom, RMS     0.016313    0.008123
  FORCE total and by dimension    0.056281    0.013244
  Stress total and by dimension    0.000000    0.000000
 Conjugate gradient step on ions:
 trial-energy change:   -0.000264  1 .order   -0.000300   -0.000610    0.000011
  (g-gl).g = 0.226E-03      g.g   = 0.216E-03  gl.gl    = 0.547E-03
 g(Force)  = 0.216E-03   g(Stress)= 0.000E+00 ortho     =-0.103E-04
 gamma     =   0.41365
 trial     =   2.88008
 opt step  =   2.80449  (harmonic =   2.83010) maximal distance =0.00284247
 next E    =  -192.265609   (d E  =  -0.00026)

 reached required accuracy - stopping structural energy minimisation