 vasp.5.4.1 24Jun15 (build Mar 14 2019 10:18:33) complex

 executed on INTEL-19.0.2+OPENMPI date 2022.07.15  15:18:56

 INCAR:
 POTCAR:    PAW_PBE Au 04Oct2007
 POTCAR:    PAW_PBE Pd 04Jan2005
 POTCAR:    PAW_PBE Au 04Oct2007

 POTCAR:    PAW_PBE Pd 04Jan2005

 Optimization of the real space projectors (new method)

 maximal supplied QI-value         = 15.12
 optimisation between [QCUT,QGAM] = [ 10.13, 20.41] = [ 28.73,116.64] Ry
 Optimized for a Real-space Cutoff    1.51 Angstroem

   l    n(q)    QCUT    max X(q) W(low)/X(q) W(high)/X(q)  e(spline)
   2      8    10.129    60.898    0.46E-03    0.46E-03    0.14E-06
   2      8    10.129    58.894    0.47E-03    0.47E-03    0.14E-06
   0      9    10.129   109.617    0.16E-03    0.11E-03    0.54E-07
   0      9    10.129    75.026    0.15E-03    0.11E-03    0.52E-07
   1      9    10.129    16.344    0.96E-04    0.15E-03    0.14E-06
   1      9    10.129    10.160    0.81E-04    0.12E-03    0.11E-06
 Optimization of the real space projectors (new method)

 maximal supplied QI-value         = 14.36
 optimisation between [QCUT,QGAM] = [ 10.20, 20.39] = [ 29.12,116.47] Ry
 Optimized for a Real-space Cutoff    1.51 Angstroem

   l    n(q)    QCUT    max X(q) W(low)/X(q) W(high)/X(q)  e(spline)
   2      8    10.197    59.108    0.26E-03    0.14E-03    0.96E-07
   2      8    10.197    58.101    0.27E-03    0.14E-03    0.98E-07
   0      9    10.197   102.235    0.54E-04    0.60E-05    0.72E-07
   0      9    10.197    58.388    0.52E-04    0.60E-05    0.68E-07
   1      9    10.197    22.191    0.18E-03    0.25E-03    0.79E-07
   1      9    10.197    15.590    0.15E-03    0.21E-03    0.69E-07
  PAW_PBE Au 04Oct2007                  :
  PAW_PBE Pd 04Jan2005                  :

 POSCAR: Au Pd
  positions in cartesian coordinates
 exchange correlation table for  LEXCH =        8
   RHO(1)=    0.500       N(1)  =     2000
   RHO(2)=  100.500       N(2)  =     4000

 VTST: version 3.2, (02/03/18)

 CHAIN: initializing optimizer

 OPT: Using VASP Conjugate-Gradient optimizer
 CHAIN: Read ICHAIN            0

 POSCAR: Au Pd
  positions in cartesian coordinates

 ion  position               nearest neighbor table
   1  0.083  0.083  0.408-  18 2.75  12 2.75  23 2.75  24 2.75  32 2.75  19 2.75   6 2.75  11 2.75
                            30 2.75
   2  0.750  0.500  0.592-   3 2.75  28 2.75  16 2.75  17 2.75   4 2.75  29 2.75  35 2.75  38 2.75
                             5 2.75
   3  0.667  0.667  0.500-   8 2.75   2 2.75  29 2.75   5 2.75  28 2.75   7 2.75  43 2.75  37 2.75
                            48 2.75  47 2.75  16 2.75  27 2.75
   4  0.750  0.250  0.592-   5 2.75  30 2.75  20 2.75  26 2.75   2 2.75  35 2.75   9 2.75  17 2.75
                            25 2.75
   5  0.667  0.417  0.500-  39 2.75   4 2.75  35 2.75  30 2.75   3 2.75  25 2.75  48 2.75  10 2.75
                            28 2.75   8 2.75  32 2.75   2 2.75
   6  0.833  0.083  0.408-  30 2.75  23 2.75  31 2.75  32 2.75  39 2.75   1 2.75  42 2.75  22 2.75
                            25 2.75
   7  0.417  0.917  0.500-  12 2.75  29 2.75  36 2.75   3 2.75  18 2.75  41 2.75  48 2.75  43 2.75
                            11 2.75  19 2.75  47 2.75  40 2.75
   8  0.583  0.583  0.408-   3 2.75  12 2.75  32 2.75  39 2.75  47 2.75  27 2.75  14 2.75   5 2.75
                            48 2.75
   9  0.500  0.250  0.592-  10 2.75  25 2.75  26 2.75  35 2.75  40 2.75  44 2.75   4 2.75  45 2.75
                            41 2.75
  10  0.417  0.417  0.500-  34 2.75   9 2.75  44 2.75  13 2.75  41 2.75  25 2.75  48 2.75  46 2.75
                             5 2.75  14 2.75  35 2.75  39 2.75
  11  0.167  0.917  0.500-  23 2.75  15 2.75  20 2.75  13 2.75  18 2.75  30 2.75  48 2.75  22 2.75
                             7 2.75   1 2.75  36 2.75  12 2.75
  12  0.333  0.833  0.408-   7 2.75   1 2.75   8 2.75  14 2.75  19 2.75  23 2.75  47 2.75  48 2.75
                            11 2.75
  13  0.167  0.667  0.500-  33 2.75  44 2.75  21 2.75  22 2.75  11 2.75  10 2.75  46 2.75  37 2.75
                            48 2.75  23 2.75  14 2.75  15 2.75
  14  0.333  0.583  0.408-  48 2.75  23 2.75  34 2.75  39 2.75  12 2.75  33 2.75   8 2.75  10 2.75
                            13 2.75
  15  0.250  0.750  0.592-  11 2.75  48 2.75  35 2.75  36 2.75  44 2.75  20 2.75  21 2.75  29 2.75
                            13 2.75
  16  0.750  0.750  0.592-  43 2.75  37 2.75   2 2.75  38 2.75  40 2.75  26 2.75  21 2.75  29 2.75
                             3 2.75
  17  0.000  0.250  0.592-  28 2.75  18 2.75  20 2.75   2 2.75  36 2.75  38 2.75   4 2.75  45 2.75
                            30 2.75
  18  0.167  0.167  0.500-   1 2.75  36 2.75  17 2.75   7 2.75  28 2.75  11 2.75  46 2.75  41 2.75
                            30 2.75  24 2.75  45 2.75  19 2.75
  19  0.333  0.083  0.408-  41 2.75  24 2.75  34 2.75  12 2.75  47 2.75  42 2.75   1 2.75   7 2.75
                            18 2.75
  20  0.000  0.000  0.592-  30 2.75  11 2.75  15 2.75  17 2.75  21 2.75   4 2.75  26 2.75  36 2.75
                            22 2.75
  21  0.000  0.750  0.592-  22 2.75  13 2.75  20 2.75  26 2.75  38 2.75  44 2.75  16 2.75  15 2.75
                            37 2.75
  22  0.917  0.917  0.500-  31 2.75  21 2.75  26 2.75  13 2.75  30 2.75  25 2.75  37 2.75  11 2.75
                            43 2.75   6 2.75  20 2.75  23 2.75
  23  0.083  0.833  0.408-  11 2.75   6 2.75   1 2.75  14 2.75  33 2.75  31 2.75  12 2.75  13 2.75
                            22 2.75
  24  0.083  0.333  0.408-  46 2.75  19 2.75  27 2.75  33 2.75   1 2.75  34 2.75  32 2.75  18 2.75
                            28 2.75
  25  0.667  0.167  0.500-  42 2.75  26 2.75   9 2.75  22 2.75   5 2.75  10 2.75  43 2.75  30 2.75
                            41 2.75  39 2.75   6 2.75   4 2.75
  26  0.750  0.000  0.592-  25 2.75  22 2.75  16 2.75  21 2.75   4 2.75   9 2.75  20 2.75  40 2.75
                            43 2.75
  27  0.833  0.583  0.408-  37 2.75  31 2.75  32 2.75  24 2.75  47 2.75   8 2.75  33 2.75  28 2.75
                             3 2.75
  28  0.917  0.417  0.500-  32 2.75  17 2.75   2 2.75  18 2.75  30 2.75   3 2.75  37 2.75   5 2.75
                            46 2.75  27 2.75  38 2.75  24 2.75
  29  0.500  0.750  0.592-   7 2.75   3 2.75   2 2.75  35 2.75  36 2.75  40 2.75  16 2.75  15 2.75
                            48 2.75
  30  0.917  0.167  0.500-   6 2.75  20 2.75   4 2.75  11 2.75   5 2.75  22 2.75  28 2.75  25 2.75
                            18 2.75  32 2.75   1 2.75  17 2.75
  31  0.833  0.833  0.408-  22 2.75   6 2.75  27 2.75  33 2.75  42 2.75  23 2.75  47 2.75  37 2.75
                            43 2.75
  32  0.833  0.333  0.408-  28 2.75   6 2.75   8 2.75  27 2.75   1 2.75  24 2.75  39 2.75  30 2.75
                             5 2.75
  33  0.083  0.583  0.408-  13 2.75  23 2.75  24 2.75  31 2.75  34 2.75  14 2.75  27 2.75  46 2.75
                            37 2.75
  34  0.333  0.333  0.408-  10 2.75  14 2.75  19 2.75  33 2.75  42 2.75  39 2.75  24 2.75  41 2.75
                            46 2.75
  35  0.500  0.500  0.592-  48 2.75   5 2.75   9 2.75  15 2.75  29 2.75   4 2.75  44 2.75   2 2.75
                            10 2.75
  36  0.250  0.000  0.592-  18 2.75   7 2.75  17 2.75  15 2.75  29 2.75  45 2.75  40 2.75  20 2.75
                            11 2.75
  37  0.917  0.667  0.500-  27 2.75  38 2.75  16 2.75  28 2.75  22 2.75  43 2.75  46 2.75  13 2.75
                             3 2.75  31 2.75  33 2.75  21 2.75
  38  0.000  0.500  0.592-  37 2.75  46 2.75  21 2.75  16 2.75  45 2.75  17 2.75   2 2.75  44 2.75
                            28 2.75
  39  0.583  0.333  0.408-   5 2.75   6 2.75   8 2.75  14 2.75  42 2.75  34 2.75  32 2.75  25 2.75
                            10 2.75
  40  0.500  0.000  0.592-  41 2.75  43 2.75  29 2.75   9 2.75  16 2.75  45 2.75  36 2.75  26 2.75
                             7 2.75
  41  0.417  0.167  0.500-  19 2.75  40 2.75  45 2.75  10 2.75  43 2.75   7 2.75  46 2.75  18 2.75
                            25 2.75  34 2.75  42 2.75   9 2.75
  42  0.583  0.083  0.408-  25 2.75  31 2.75  34 2.75  39 2.75  47 2.75  19 2.75   6 2.75  43 2.75
                            41 2.75
  43  0.667  0.917  0.500-  47 2.75  16 2.75  40 2.75  37 2.75   3 2.75  41 2.75  25 2.75  22 2.75
                             7 2.75  42 2.75  31 2.75  26 2.75
  44  0.250  0.500  0.592-  13 2.75  10 2.75   9 2.75  15 2.75  21 2.75  45 2.75  38 2.75  35 2.75
                            46 2.75
  45  0.250  0.250  0.592-  46 2.75  41 2.75  40 2.75  36 2.75  44 2.75  38 2.75   9 2.75  17 2.75
                            18 2.75
  46  0.167  0.417  0.500-  24 2.75  45 2.75  38 2.75  37 2.75  18 2.75  41 2.75  13 2.75  10 2.75
                            28 2.75  33 2.75  44 2.75  34 2.75
  47  0.583  0.833  0.408-  43 2.75  19 2.75  27 2.75  42 2.75   8 2.75  12 2.75  31 2.75   3 2.75
                             7 2.75
  48  0.417  0.667  0.500-  14 2.75  35 2.75  15 2.75  11 2.75   5 2.75   7 2.75  10 2.75  13 2.75
                             3 2.75  12 2.75  29 2.75   8 2.75

  LATTYP: Found a hexagonal cell.
 ALAT       =    11.0025815153
 C/A-ratio  =     2.2260035120

  Lattice vectors:

 A1 = (   5.5012907576,  -9.5285150994,   0.0000000000)
 A2 = ( -11.0025815153,   0.0000000000,   0.0000000000)
 A3 = (   0.0000000000,   0.0000000000, -24.4917850943)

Analysis of symmetry for initial positions (statically):
 Subroutine PRICEL returns:
 Original cell was already a primitive cell.

 Routine SETGRP: Setting up the symmetry group for a
 hexagonal supercell.

 Subroutine GETGRP returns: Found  1 space group operations
 (whereof  1 operations were pure point group operations)
 out of a pool of 24 trial point group operations.

The static configuration has the point symmetry C_1 .

Analysis of symmetry for dynamics (positions and initial velocities):
 Subroutine PRICEL returns:
 Original cell was already a primitive cell.

 Routine SETGRP: Setting up the symmetry group for a
 hexagonal supercell.

 Subroutine GETGRP returns: Found  1 space group operations
 (whereof  1 operations were pure point group operations)
 out of a pool of 24 trial point group operations.

The dynamic configuration has the point symmetry C_1 .

 KPOINTS: Automatic mesh

Automatic generation of k-mesh.
Space group operators:
 irot       det(A)        alpha          n_x          n_y          n_z        tau_x        tau_y        tau_z
    1     1.000000     0.000000     1.000000     0.000000     0.000000     0.000000     0.000000     0.000000

 Subroutine IBZKPT returns following result:

 Found      6 irreducible k-points:

 Following reciprocal coordinates:
            Coordinates               Weight
  0.250000  0.250000  0.000000     16.000000
  0.000000  0.250000  0.000000     16.000000
 -0.250000  0.000000  0.000000     16.000000
 -0.250000  0.250000  0.000000     16.000000
  0.500000 -0.250000  0.000000     16.000000
 -0.250000  0.500000  0.000000     16.000000

 Following cartesian coordinates:
            Coordinates               Weight
  0.022722  0.013119  0.000000     16.000000
  0.000000  0.026237  0.000000     16.000000
[...]
 dipolmoment           0.000000      0.000000     -0.003329 electrons x Angstroem
 Tr[quadrupol]    -10211.123433

 energy correction for charged system         0.000000 eV
 dipol+quadrupol energy correction           -0.000000 eV
 added-field ion interaction         -0.000068 eV  (added to PSCEN)

  free energy =  -0.192222835034E+03  energy without entropy=  -0.191961349914E+03

 average (electrostatic) potential at core
  the test charge radii are     1.2098  1.1199
  (the norm of the test charge is              1.0000)
       1 -74.0348       2 -73.8839       3 -74.1493       4 -73.9822       5 -74.1601
       6 -73.9315       7 -74.2012       8 -73.8911       9 -73.8297      10 -74.1430
      11 -74.2291      12 -73.9948      13 -74.1913      14 -73.9541      15 -73.9753
      16 -73.8643      17 -73.9802      18 -74.1875      19 -73.9210      20 -74.0178
      21 -73.9385      22 -74.1785      23 -73.9974      24 -73.9114      25 -80.9390
      26 -80.8012      27 -80.8644      28 -80.9266      29 -80.8616      30 -80.8778
      31 -80.8675      32 -80.8775      33 -80.8545      34 -80.8374      35 -80.8304
      36 -80.8821      37 -80.9238      38 -80.8285      39 -80.8355      40 -80.8417
      41 -80.9800      42 -80.8369      43 -80.9997      44 -80.8066      45 -80.8495
      46 -80.9904      47 -80.8288      48 -80.8027

 E-fermi :  -1.0980     XC(G=0):  -4.5491     alpha+bet : -4.5211

[...]

 k-point     6 :      -0.2500    0.5000    0.0000
  band No.  band energies     occupation
      1      -8.6012      2.00000
      2      -8.0059      2.00000
      3      -7.8796      2.00000
      4      -7.5105      2.00000
      5      -7.2603      2.00000
      6      -7.0565      2.00000
      7      -7.0107      2.00000
      8      -6.9086      2.00000
      9      -6.8520      2.00000
     10      -6.8191      2.00000
     11      -6.7420      2.00000
     12      -6.6930      2.00000
     13      -6.6669      2.00000
     14      -6.6503      2.00000
     15      -6.6141      2.00000
     16      -6.5617      2.00000
     17      -6.5409      2.00000
     18      -6.4733      2.00000
     19      -6.4535      2.00000
     20      -6.4080      2.00000
     21      -6.3780      2.00000
     22      -6.3433      2.00000
     23      -6.3218      2.00000
     24      -6.2872      2.00000
     25      -6.2563      2.00000
     26      -6.2405      2.00000
     27      -6.2240      2.00000
     28      -6.2099      2.00000
     29      -6.1691      2.00000
     30      -6.1516      2.00000
     31      -6.1405      2.00000
     32      -6.1322      2.00000
     33      -6.0887      2.00000
     34      -6.0663      2.00000
     35      -6.0437      2.00000
     36      -5.9928      2.00000
     37      -5.9769      2.00000
     38      -5.9496      2.00000
     39      -5.9319      2.00000
     40      -5.8861      2.00000
     41      -5.8573      2.00000
     42      -5.8316      2.00000
     43      -5.7900      2.00000
     44      -5.7748      2.00000
     45      -5.7139      2.00000
     46      -5.7039      2.00000
     47      -5.6778      2.00000
     48      -5.6512      2.00000
     49      -5.6165      2.00000
     50      -5.6029      2.00000
     51      -5.5877      2.00000
     52      -5.5506      2.00000
     53      -5.5003      2.00000
     54      -5.4892      2.00000
     55      -5.4527      2.00000
     56      -5.4160      2.00000
     57      -5.3825      2.00000
     58      -5.3664      2.00000
     59      -5.3631      2.00000
     60      -5.3299      2.00000
[...]
    292       4.2076      0.00000
    293       4.4559      0.00000
    294       4.5407      0.00000
    295       4.5888      0.00000
    296       4.6324      0.00000
    297       4.7181      0.00000
    298       4.7714      0.00000
    299       4.8611      0.00000
    300       4.9133      0.00000
    301       4.9536      0.00000
    302       5.0376      0.00000
    303       5.0552      0.00000
    304       5.0801      0.00000
    305       5.1852      0.00000
    306       5.2387      0.00000

 soft charge-density along one line, spin component           1
         0         1         2         3         4         5         6         7         8         9
 total charge-density along one line

------------------------ aborting loop because EDIFF is reached ----------------------------------------

 VOLUME and BASIS-vectors are now :
  energy-cutoff  :      400.00
  volume of cell :     2567.68
      direct lattice vectors                 reciprocal lattice vectors
    11.002581515  0.000000000  0.000000000     0.090887761 -0.052474073  0.000000000
     5.501290758  9.528515099  0.000000000     0.000000000  0.104948147  0.000000000
     0.000000000  0.000000000 24.491785094     0.000000000  0.000000000  0.040830017

  length of vectors
    11.002581515 11.002581515 24.491785094     0.104948147  0.104948147  0.040830017

 FORCES acting on ions
    electron-ion (+dipol)            ewald-force                    non-local-force                 convergence-correction
   0.180E+02 -.208E+02 0.226E+04   -.184E+02 0.213E+02 -.226E+04   0.376E+00 -.492E+00 0.809E-01   0.222E-02 -.190E-02 0.213E-03
   0.718E+01 -.109E+02 -.231E+04   -.737E+01 0.113E+02 0.231E+04   0.184E+00 -.386E+00 0.109E+00   0.194E-03 0.233E-03 0.256E-02
   0.534E+01 0.900E+01 -.918E+01   -.483E+01 -.884E+01 0.867E+01   -.506E+00 -.167E+00 0.505E+00   -.246E-02 0.137E-02 0.115E-02
   0.823E+01 -.231E+01 -.227E+04   -.892E+01 0.198E+01 0.227E+04   0.696E+00 0.330E+00 0.297E+00   -.810E-03 -.981E-05 0.272E-02
   -.557E+01 -.468E+01 -.314E+02   0.570E+01 0.413E+01 0.308E+02   -.111E+00 0.560E+00 0.533E+00   -.278E-02 0.193E-02 0.221E-02
   0.192E+02 -.864E+01 0.221E+04   -.199E+02 0.942E+01 -.221E+04   0.702E+00 -.777E+00 -.672E-01   -.264E-02 -.233E-02 -.362E-02
   0.131E+02 -.570E+00 0.770E+02   -.125E+02 0.374E+00 -.760E+02   -.607E+00 0.198E+00 -.105E+01   -.626E-03 0.270E-02 0.300E-02
   -.251E+02 0.220E+02 0.229E+04   0.256E+02 -.222E+02 -.229E+04   -.493E+00 0.190E+00 -.128E-01   -.840E-03 0.221E-02 -.105E-02
   0.202E+02 -.379E+00 -.227E+04   -.206E+02 0.731E-01 0.227E+04   0.439E+00 0.305E+00 0.190E+00   -.350E-02 -.383E-03 0.112E-02
   -.318E+01 -.484E+01 0.420E+00   0.295E+01 0.452E+01 -.532E+00   0.231E+00 0.312E+00 0.118E+00   -.491E-02 -.766E-03 0.844E-03
   0.716E+01 0.463E+01 0.525E+02   -.698E+01 -.453E+01 -.519E+02   -.185E+00 -.105E+00 -.526E+00   0.215E-02 -.153E-02 0.235E-02
   -.725E+01 0.205E+01 0.231E+04   0.780E+01 -.220E+01 -.231E+04   -.551E+00 0.154E+00 -.590E-01   -.229E-03 0.102E-03 -.253E-03
   -.119E+02 -.162E+02 0.221E+01   0.114E+02 0.154E+02 -.233E+01   0.482E+00 0.728E+00 0.118E+00   0.906E-03 -.302E-02 0.359E-03
   0.117E+02 0.236E+02 0.230E+04   -.119E+02 -.243E+02 -.230E+04   0.218E+00 0.672E+00 -.616E-01   -.394E-02 -.646E-03 0.627E-03
   -.222E+02 0.203E+01 -.223E+04   0.232E+02 -.272E+01 0.223E+04   -.101E+01 0.691E+00 -.188E+00   -.284E-03 -.165E-03 0.171E-02
   0.160E+02 -.106E+02 -.228E+04   -.160E+02 0.113E+02 0.228E+04   -.415E-01 -.627E+00 0.228E+00   -.705E-03 0.167E-02 0.367E-02
   -.238E+02 0.889E+01 -.225E+04   0.246E+02 -.860E+01 0.225E+04   -.841E+00 -.291E+00 0.231E+00   0.384E-02 -.859E-03 0.134E-02
   0.825E+01 0.312E+01 0.445E+02   -.814E+01 -.242E+01 -.432E+02   -.104E+00 -.708E+00 -.121E+01   0.578E-02 -.380E-03 0.279E-02
   -.233E+02 -.133E+02 0.231E+04   0.245E+02 0.132E+02 -.231E+04   -.121E+01 0.811E-01 0.232E-01   0.220E-02 0.155E-02 0.177E-02
   -.166E+02 0.585E+01 -.227E+04   0.165E+02 -.543E+01 0.227E+04   0.103E+00 -.417E+00 0.411E-01   0.817E-03 -.380E-03 0.236E-02
   -.690E+01 0.860E+01 -.230E+04   0.637E+01 -.931E+01 0.230E+04   0.526E+00 0.708E+00 -.786E-01   0.104E-02 -.689E-03 0.161E-02
   -.195E+02 -.650E+00 -.302E+02   0.183E+02 0.108E+01 0.302E+02   0.113E+01 -.426E+00 -.421E-01   0.112E-02 -.137E-02 -.756E-03
   0.318E+02 0.221E+01 0.229E+04   -.324E+02 -.271E+01 -.229E+04   0.678E+00 0.508E+00 0.215E+00   -.914E-03 -.310E-02 -.884E-03
   0.701E+01 -.250E+02 0.226E+04   -.697E+01 0.260E+02 -.225E+04   -.518E-01 -.998E+00 -.355E+00   0.513E-02 0.155E-02 -.914E-03
   -.625E+01 -.152E+01 -.358E+02   0.595E+01 0.104E+01 0.353E+02   0.305E+00 0.473E+00 0.501E+00   -.365E-02 0.896E-03 0.925E-03
   0.143E+02 -.293E+01 -.199E+04   -.148E+02 0.310E+01 0.199E+04   0.453E+00 -.162E+00 0.176E+01   -.165E-02 0.427E-03 0.261E-02
   -.987E+01 -.127E+01 0.195E+04   0.100E+02 0.152E+01 -.195E+04   -.180E+00 -.254E+00 -.172E+01   0.274E-02 0.198E-02 -.219E-02
   0.465E+01 0.496E+01 -.376E+02   -.426E+01 -.476E+01 0.372E+02   -.400E+00 -.191E+00 0.416E+00   0.318E-02 -.707E-03 0.186E-02
   0.143E+02 -.132E+02 -.194E+04   -.145E+02 0.132E+02 0.194E+04   0.282E+00 0.703E-02 0.132E+01   0.176E-03 0.204E-02 0.501E-03
   -.290E+01 0.717E+01 -.378E+02   0.275E+01 -.672E+01 0.373E+02   0.148E+00 -.445E+00 0.534E+00   0.161E-02 -.152E-02 0.267E-02
   0.103E+02 0.383E+01 0.194E+04   -.109E+02 -.421E+01 -.194E+04   0.599E+00 0.377E+00 -.173E+01   0.705E-04 -.107E-02 -.215E-02
   0.139E+01 -.491E+01 0.192E+04   -.143E+01 0.507E+01 -.192E+04   0.409E-01 -.157E+00 -.172E+01   0.718E-03 0.581E-03 -.169E-02
   0.210E+02 -.791E+00 0.195E+04   -.213E+02 0.702E+00 -.195E+04   0.361E+00 0.887E-01 -.152E+01   0.143E-02 -.158E-02 -.512E-03
   -.386E+01 0.223E+01 0.198E+04   0.408E+01 -.236E+01 -.198E+04   -.211E+00 0.137E+00 -.173E+01   -.192E-02 0.449E-03 0.195E-02
   0.930E+01 -.170E+02 -.197E+04   -.934E+01 0.174E+02 0.197E+04   0.492E-01 -.394E+00 0.153E+01   -.233E-02 -.854E-03 0.672E-03
   -.166E+02 0.402E+01 -.196E+04   0.171E+02 -.412E+01 0.195E+04   -.532E+00 0.945E-01 0.136E+01   0.274E-02 0.214E-02 0.393E-03
   -.200E+00 -.275E+01 -.654E+02   0.725E-01 0.224E+01 0.645E+02   0.116E+00 0.511E+00 0.823E+00   0.285E-02 -.114E-02 -.720E-03
   -.117E+02 0.107E+02 -.198E+04   0.121E+02 -.110E+02 0.197E+04   -.380E+00 0.260E+00 0.192E+01   0.287E-02 -.246E-02 0.166E-02
   -.438E+01 0.162E+02 0.197E+04   0.415E+01 -.167E+02 -.197E+04   0.233E+00 0.448E+00 -.160E+01   -.419E-02 -.467E-03 -.135E-03
   0.175E+02 -.414E+01 -.196E+04   -.174E+02 0.428E+01 0.196E+04   -.123E+00 -.140E+00 0.178E+01   -.207E-02 0.291E-02 0.120E-02
   0.286E+01 -.935E-01 0.171E+02   -.247E+01 0.353E-01 -.172E+02   -.385E+00 0.566E-01 0.876E-01   -.255E-02 0.251E-02 0.113E-02
   -.152E+02 0.166E+01 0.195E+04   0.150E+02 -.162E+01 -.195E+04   0.176E+00 -.360E-01 -.187E+01   -.203E-02 0.852E-03 -.149E-03
   -.980E+00 0.408E+00 -.254E+02   0.121E+01 0.509E-01 0.250E+02   -.231E+00 -.456E+00 0.392E+00   -.204E-02 0.216E-02 0.498E-03
   -.131E+01 0.998E+01 -.199E+04   0.107E+01 -.102E+02 0.199E+04   0.232E+00 0.267E+00 0.152E+01   -.618E-03 -.224E-02 -.122E-03
   -.504E+01 0.102E+02 -.196E+04   0.523E+01 -.996E+01 0.196E+04   -.200E+00 -.242E+00 0.176E+01   0.107E-02 -.100E-02 -.343E-03
   0.219E+01 0.303E+01 0.125E+02   -.246E+01 -.285E+01 -.121E+02   0.263E+00 -.178E+00 -.395E+00   0.389E-02 -.243E-02 0.113E-03
   -.328E+02 0.592E+01 0.200E+04   0.334E+02 -.571E+01 -.200E+04   -.581E+00 -.216E+00 -.163E+01   0.748E-03 0.123E-02 -.749E-03
   0.529E+01 -.476E+01 0.884E+02   -.521E+01 0.476E+01 -.874E+02   -.783E-01 0.110E-02 -.974E+00   -.145E-02 0.564E-03 0.110E-02
   -.405E-01 0.908E-01 0.158E+00   -.568E-13 0.393E-12 0.387E-11   0.144E-01 -.106E+00 -.161E+00   0.330E-03 -.969E-03 0.334E-01

 POSITION                                       TOTAL-FORCE (eV/Angst)
      1.36765      0.82602      9.66363         0.002011      0.006056     -0.009727
     11.00368      4.77698     14.85093        -0.002860     -0.009292     -0.001919
     11.01892      6.34606     12.25351        -0.001336     -0.007597     -0.006182
      9.60879      2.37288     14.80459         0.004998      0.002136      0.000397
      9.63114      3.95335     12.28028         0.009048      0.010385     -0.001753
      9.60127      0.82025      9.79428         0.005044      0.000033      0.003864
      9.64015      8.73529     12.16978         0.000277      0.005989     -0.002223
      9.66369      5.54831      9.66931         0.007760     -0.001302      0.001918
      6.84720      2.36635     14.76232        -0.013053     -0.001355     -0.000838
      6.85720      3.95613     12.24515        -0.003348     -0.006930      0.006007
      6.86974      8.73413     12.19703         0.001343     -0.004926      0.000034
      8.27788      7.93947      9.57828         0.002457      0.007706      0.007520
      5.48032      6.33670     12.24619         0.003576      0.001487      0.000618
      6.86868      5.53770      9.64116         0.000860     -0.007020      0.001009
      6.91103      7.11630     14.72794         0.008743     -0.002455      0.003711
     12.37005      7.16480     14.80337         0.002256     -0.001115     -0.006344
      1.40415      2.38047     14.76505        -0.004275     -0.001333      0.010735
      2.74704      1.61328     12.21413         0.009713     -0.001465      0.004699
      4.17005      0.81565      9.63171         0.006191      0.000214      0.002615
      0.01225     -0.01060     14.80743         0.002228     -0.000854     -0.000249
      4.12321      7.11979     14.84192        -0.005593     -0.005368      0.005889
     15.09587      8.74244     12.28501         0.001216     -0.000221      0.001550
      5.46903      7.93884      9.64343        -0.000087      0.002050     -0.000256
      2.75582      3.23028      9.73489        -0.003651      0.002711      0.004662
      8.23759      1.57598     12.29089        -0.007185     -0.001787     -0.001221
      8.23145     -0.00454     14.67206        -0.004465     -0.000549      0.000548
     12.39614      5.58566      9.93094         0.000834     -0.005631      0.002804
     12.38684      3.96992     12.29380        -0.006792      0.006470     -0.003293
      9.62113      7.14252     14.56818        -0.011990      0.001233     -0.007185
     10.99342      1.59028     12.29806        -0.003102      0.005115     -0.000120
     13.73458      7.93204      9.93805         0.005329     -0.000359     -0.001087
     11.00624      3.19355      9.93641         0.001653      0.003975     -0.003765
      4.11853      5.57426      9.90359         0.004279     -0.001388     -0.003771
      5.51528      3.18301      9.86499         0.006179      0.005996      0.002387
      8.24857      4.76323     14.62256        -0.001350      0.005453      0.002888
      2.77894     -0.01034     14.57789        -0.003072     -0.005213     -0.001850
     13.74805      6.34234     12.32597        -0.008160     -0.004706     -0.000695
      2.77113      4.74687     14.63798        -0.001991     -0.000957     -0.006970
      8.24590      3.17258      9.88733         0.002954      0.000317     -0.000425
      5.47984     -0.00291     14.58271        -0.003543      0.002167     -0.009062
      5.50874      1.58615     12.22487         0.003788      0.001250      0.003311
      6.87886      0.79768      9.91745         0.000840     -0.001476     -0.003845
     12.37983      8.73418     12.27647        -0.006536      0.005602     -0.000841
      5.49343      4.74418     14.63984        -0.001361      0.000436     -0.006411
      4.12915      2.38222     14.58435        -0.003407     -0.003151      0.002200
      4.09985      3.96868     12.23732         0.002412     -0.002751      0.004814
     11.04093      7.95552      9.83646        -0.000823      0.000984     -0.000803
      8.24595      6.34341     12.14334         0.001987      0.001438      0.006652
    total drift:                               -0.025769     -0.016039      0.029525

  FREE ENERGIE OF THE ION-ELECTRON SYSTEM (eV)
  free  energy   TOTEN  =      -192.22283503 eV

  energy  without entropy=     -191.96134991  energy(sigma->0) =     -192.09209247

 d Force = 0.3693615E-03[-0.233E-05, 0.741E-03]  d Energy = 0.3791232E-03-0.976E-05
 d Force =-0.2447314E+02[-0.245E+02,-0.245E+02]  d Ewald  =-0.2447314E+02 0.208E-05

 stress matrix after NEB project (eV)
      0.00000      0.00000      0.00000
      0.00000      0.00000      0.00000
      0.00000      0.00000      0.00000
  FORCES: max atom, RMS     0.014032    0.007920
  FORCE total and by dimension    0.054870    0.013053
  Stress total and by dimension    0.000000    0.000000
 Conjugate gradient step on ions:
 trial-energy change:   -0.000379  1 .order   -0.000369   -0.000741    0.000002
  (g-gl).g = 0.189E-03      g.g   = 0.201E-03  gl.gl    = 0.573E-03
 g(Force)  = 0.201E-03   g(Stress)= 0.000E+00 ortho     = 0.158E-04
 gamma     =   0.32944
 trial     =   3.58769
 opt step  =   3.57725  (harmonic =   3.57643) maximal distance =0.00324311
 next E    =  -192.222835   (d E  =  -0.00038)

 reached required accuracy - stopping structural energy minimisation