 vasp.5.4.1 24Jun15 (build Mar 14 2019 10:18:33) complex

 executed on INTEL-19.0.2+OPENMPI date 2022.07.15  21:12:19

 INCAR:
 POTCAR:    PAW_PBE Au 04Oct2007
 POTCAR:    PAW_PBE Pd 04Jan2005
 POTCAR:    PAW_PBE Au 04Oct2007

 POTCAR:    PAW_PBE Pd 04Jan2005

 Optimization of the real space projectors (new method)

 maximal supplied QI-value         = 15.12
 optimisation between [QCUT,QGAM] = [ 10.13, 20.41] = [ 28.73,116.64] Ry
 Optimized for a Real-space Cutoff    1.51 Angstroem

   l    n(q)    QCUT    max X(q) W(low)/X(q) W(high)/X(q)  e(spline)
   2      8    10.129    60.898    0.46E-03    0.46E-03    0.14E-06
   2      8    10.129    58.894    0.47E-03    0.47E-03    0.14E-06
   0      9    10.129   109.617    0.16E-03    0.11E-03    0.54E-07
   0      9    10.129    75.026    0.15E-03    0.11E-03    0.52E-07
   1      9    10.129    16.344    0.96E-04    0.15E-03    0.14E-06
   1      9    10.129    10.160    0.81E-04    0.12E-03    0.11E-06
 Optimization of the real space projectors (new method)

 maximal supplied QI-value         = 14.36
 optimisation between [QCUT,QGAM] = [ 10.20, 20.39] = [ 29.12,116.47] Ry
 Optimized for a Real-space Cutoff    1.51 Angstroem

   l    n(q)    QCUT    max X(q) W(low)/X(q) W(high)/X(q)  e(spline)
   2      8    10.197    59.108    0.26E-03    0.14E-03    0.96E-07
   2      8    10.197    58.101    0.27E-03    0.14E-03    0.98E-07
   0      9    10.197   102.235    0.54E-04    0.60E-05    0.72E-07
   0      9    10.197    58.388    0.52E-04    0.60E-05    0.68E-07
   1      9    10.197    22.191    0.18E-03    0.25E-03    0.79E-07
   1      9    10.197    15.590    0.15E-03    0.21E-03    0.69E-07
  PAW_PBE Au 04Oct2007                  :
  PAW_PBE Pd 04Jan2005                  :

 POSCAR: Au Pd
  positions in cartesian coordinates
 exchange correlation table for  LEXCH =        8
   RHO(1)=    0.500       N(1)  =     2000
   RHO(2)=  100.500       N(2)  =     4000

 VTST: version 3.2, (02/03/18)

 CHAIN: initializing optimizer

 OPT: Using VASP Conjugate-Gradient optimizer
 CHAIN: Read ICHAIN            0

 POSCAR: Au Pd
  positions in cartesian coordinates

 ion  position               nearest neighbor table
   1  0.333  0.333  0.408-   2 2.75   4 2.75   9 2.75  14 2.75  42 2.75  34 2.75  24 2.75  36 2.75
                            10 2.75
   2  0.417  0.417  0.500-   1 2.75  33 2.75  38 2.75  13 2.75  36 2.75  27 2.75  39 2.75  26 2.75
                            10 2.75   9 2.75  34 2.75  11 2.75
   3  0.417  0.917  0.500-  37 2.75  30 2.75  12 2.75  13 2.75  36 2.75  28 2.75  41 2.75   6 2.75
                             5 2.75  42 2.75  25 2.75  35 2.75
   4  0.583  0.083  0.408-  27 2.75  20 2.75  25 2.75   1 2.75  34 2.75   7 2.75  42 2.75   5 2.75
                            36 2.75
   5  0.667  0.917  0.500-  25 2.75  48 2.75  35 2.75  27 2.75  36 2.75  45 2.75  28 2.75  16 2.75
                             3 2.75   4 2.75  20 2.75   8 2.75
   6  0.167  0.917  0.500-  43 2.75  32 2.75  46 2.75  39 2.75  41 2.75  18 2.75  13 2.75   3 2.75
                            16 2.75  31 2.75  12 2.75  37 2.75
   7  0.833  0.083  0.408-  18 2.75  20 2.75  29 2.75  34 2.75  43 2.75   4 2.75  31 2.75  16 2.75
                            27 2.75
   8  0.750  0.000  0.592-  27 2.75  16 2.75  21 2.75  15 2.75  33 2.75  48 2.75  46 2.75  35 2.75
                             5 2.75
   9  0.333  0.583  0.408-  13 2.75   1 2.75  34 2.75  37 2.75  43 2.75  14 2.75  47 2.75   2 2.75
                            39 2.75
  10  0.167  0.417  0.500-  24 2.75  40 2.75  44 2.75  36 2.75  41 2.75  39 2.75  45 2.75  23 2.75
                             2 2.75  14 2.75  38 2.75   1 2.75
  11  0.500  0.500  0.592-  13 2.75  26 2.75  21 2.75  30 2.75  32 2.75  33 2.75  19 2.75  38 2.75
                             2 2.75
  12  0.250  0.000  0.592-  41 2.75   3 2.75  30 2.75  32 2.75  40 2.75  22 2.75  35 2.75  46 2.75
                             6 2.75
  13  0.417  0.667  0.500-   9 2.75  11 2.75  32 2.75   2 2.75   3 2.75  26 2.75   6 2.75  28 2.75
                            39 2.75  37 2.75  30 2.75  47 2.75
  14  0.083  0.583  0.408-  39 2.75  20 2.75  24 2.75   1 2.75  43 2.75   9 2.75  17 2.75  10 2.75
                            45 2.75
  15  0.000  0.750  0.592-  16 2.75  39 2.75  38 2.75   8 2.75  44 2.75  46 2.75  32 2.75  48 2.75
                            45 2.75
  16  0.917  0.917  0.500-  20 2.75  15 2.75   8 2.75  18 2.75  27 2.75  39 2.75  45 2.75   6 2.75
                             5 2.75   7 2.75  43 2.75  46 2.75
  17  0.833  0.583  0.408-  45 2.75  24 2.75  25 2.75  29 2.75  20 2.75  14 2.75  47 2.75  23 2.75
                            28 2.75
  18  0.917  0.167  0.500-   7 2.75  46 2.75  21 2.75   6 2.75  23 2.75  26 2.75  16 2.75  41 2.75
                            27 2.75  29 2.75  22 2.75  31 2.75
  19  0.750  0.500  0.592-  28 2.75  23 2.75  21 2.75  22 2.75  30 2.75  48 2.75  44 2.75  11 2.75
                            26 2.75
  20  0.833  0.833  0.408-  16 2.75   7 2.75  14 2.75   4 2.75  17 2.75  25 2.75  43 2.75  45 2.75
                             5 2.75
  21  0.750  0.250  0.592-  26 2.75  18 2.75   8 2.75  19 2.75  11 2.75  46 2.75  33 2.75  22 2.75
                            27 2.75
  22  0.000  0.250  0.592-  23 2.75  41 2.75  12 2.75  19 2.75  44 2.75  46 2.75  40 2.75  21 2.75
                            18 2.75
  23  0.917  0.417  0.500-  29 2.75  22 2.75  19 2.75  28 2.75  18 2.75  41 2.75  45 2.75  10 2.75
                            26 2.75  17 2.75  44 2.75  24 2.75
  24  0.083  0.333  0.408-  10 2.75  14 2.75  17 2.75  31 2.75  42 2.75   1 2.75  29 2.75  41 2.75
                            23 2.75
  25  0.583  0.833  0.408-   5 2.75   4 2.75  17 2.75  42 2.75  47 2.75  20 2.75  37 2.75  28 2.75
                             3 2.75
  26  0.667  0.417  0.500-  34 2.75  21 2.75  11 2.75  13 2.75  27 2.75  28 2.75  18 2.75  23 2.75
                             2 2.75  47 2.75  19 2.75  29 2.75
  27  0.667  0.167  0.500-   4 2.75   8 2.75  33 2.75   2 2.75  16 2.75  26 2.75   5 2.75  18 2.75
                            36 2.75  34 2.75   7 2.75  21 2.75
  28  0.667  0.667  0.500-  47 2.75  19 2.75  30 2.75  23 2.75  26 2.75   5 2.75   3 2.75  45 2.75
                            13 2.75  25 2.75  17 2.75  48 2.75
  29  0.833  0.333  0.408-  23 2.75  17 2.75   7 2.75  31 2.75  47 2.75  34 2.75  24 2.75  18 2.75
                            26 2.75
  30  0.500  0.750  0.592-   3 2.75  28 2.75  12 2.75  19 2.75  11 2.75  35 2.75  32 2.75  48 2.75
                            13 2.75
  31  0.083  0.083  0.408-  41 2.75  29 2.75  37 2.75  24 2.75  43 2.75  42 2.75   7 2.75   6 2.75
                            18 2.75
  32  0.250  0.750  0.592-   6 2.75  13 2.75  12 2.75  11 2.75  38 2.75  46 2.75  15 2.75  30 2.75
                            39 2.75
  33  0.500  0.250  0.592-   2 2.75  27 2.75  11 2.75   8 2.75  35 2.75  38 2.75  21 2.75  40 2.75
                            36 2.75
  34  0.583  0.333  0.408-  26 2.75   7 2.75   9 2.75   4 2.75  47 2.75  29 2.75   1 2.75  27 2.75
                             2 2.75
  35  0.500  0.000  0.592-  36 2.75   5 2.75  33 2.75  30 2.75  40 2.75  48 2.75  12 2.75   8 2.75
                             3 2.75
  36  0.417  0.167  0.500-  42 2.75  35 2.75  40 2.75  10 2.75   2 2.75   3 2.75   5 2.75  41 2.75
                            27 2.75   1 2.75   4 2.75  33 2.75
  37  0.333  0.833  0.408-   3 2.75   9 2.75  31 2.75  42 2.75  47 2.75  43 2.75  25 2.75  13 2.75
                             6 2.75
  38  0.250  0.500  0.592-  39 2.75   2 2.75  32 2.75  33 2.75  15 2.75  40 2.75  11 2.75  44 2.75
                            10 2.75
  39  0.167  0.667  0.500-  14 2.75  38 2.75  15 2.75   2 2.75   6 2.75  16 2.75  10 2.75  13 2.75
                            45 2.75  43 2.75  32 2.75   9 2.75
  40  0.250  0.250  0.592-  10 2.75  36 2.75  35 2.75  12 2.75  38 2.75  44 2.75  22 2.75  33 2.75
                            41 2.75
  41  0.167  0.167  0.500-  31 2.75  12 2.75  22 2.75   3 2.75   6 2.75  23 2.75  10 2.75  18 2.75
                            36 2.75  24 2.75  40 2.75  42 2.75
  42  0.333  0.083  0.408-  36 2.75  24 2.75  25 2.75   1 2.75  37 2.75   4 2.75  31 2.75   3 2.75
                            41 2.75
  43  0.083  0.833  0.408-   6 2.75   7 2.75   9 2.75  14 2.75  31 2.75  20 2.75  37 2.75  39 2.75
                            16 2.75
  44  0.000  0.500  0.592-  45 2.75  10 2.75  22 2.75  40 2.75  15 2.75  48 2.75  38 2.75  19 2.75
                            23 2.75
  45  0.917  0.667  0.500-  17 2.75  44 2.75  48 2.75   5 2.75  23 2.75  10 2.75  16 2.75  28 2.75
                            39 2.75  20 2.75  14 2.75  15 2.75
  46  0.000  0.000  0.592-  18 2.75   6 2.75  15 2.75  21 2.75  22 2.75  32 2.75  12 2.75   8 2.75
                            16 2.75
  47  0.583  0.583  0.408-  28 2.75  25 2.75  29 2.75  34 2.75  37 2.75  17 2.75   9 2.75  26 2.75
                            13 2.75
  48  0.750  0.750  0.592-   5 2.75  45 2.75  19 2.75  35 2.75  44 2.75   8 2.75  30 2.75  15 2.75
                            28 2.75

  LATTYP: Found a hexagonal cell.
 ALAT       =    11.0025815153
 C/A-ratio  =     2.2260035120

  Lattice vectors:

 A1 = (   5.5012907576,  -9.5285150994,   0.0000000000)
 A2 = ( -11.0025815153,   0.0000000000,   0.0000000000)
 A3 = (   0.0000000000,   0.0000000000, -24.4917850943)

Analysis of symmetry for initial positions (statically):
 Subroutine PRICEL returns:
 Original cell was already a primitive cell.

 Routine SETGRP: Setting up the symmetry group for a
 hexagonal supercell.

 Subroutine GETGRP returns: Found  1 space group operations
 (whereof  1 operations were pure point group operations)
 out of a pool of 24 trial point group operations.

The static configuration has the point symmetry C_1 .

Analysis of symmetry for dynamics (positions and initial velocities):
 Subroutine PRICEL returns:
 Original cell was already a primitive cell.

 Routine SETGRP: Setting up the symmetry group for a
 hexagonal supercell.

 Subroutine GETGRP returns: Found  1 space group operations
 (whereof  1 operations were pure point group operations)
 out of a pool of 24 trial point group operations.

The dynamic configuration has the point symmetry C_1 .

 KPOINTS: Automatic mesh

Automatic generation of k-mesh.
Space group operators:
 irot       det(A)        alpha          n_x          n_y          n_z        tau_x        tau_y        tau_z
    1     1.000000     0.000000     1.000000     0.000000     0.000000     0.000000     0.000000     0.000000

 Subroutine IBZKPT returns following result:

 Found      6 irreducible k-points:

 Following reciprocal coordinates:
            Coordinates               Weight
  0.250000  0.250000  0.000000     16.000000
  0.000000  0.250000  0.000000     16.000000
 -0.250000  0.000000  0.000000     16.000000
 -0.250000  0.250000  0.000000     16.000000
  0.500000 -0.250000  0.000000     16.000000
 -0.250000  0.500000  0.000000     16.000000

 Following cartesian coordinates:
            Coordinates               Weight
  0.022722  0.013119  0.000000     16.000000
  0.000000  0.026237  0.000000     16.000000
[...]
 dipolmoment           0.000000      0.000000      0.000135 electrons x Angstroem
 Tr[quadrupol]    -10249.152766

 energy correction for charged system         0.000000 eV
 dipol+quadrupol energy correction           -0.000000 eV
 added-field ion interaction          0.000024 eV  (added to PSCEN)

  free energy =  -0.192151321500E+03  energy without entropy=  -0.191914784527E+03

 average (electrostatic) potential at core
  the test charge radii are     1.2098  1.1199
  (the norm of the test charge is              1.0000)
       1 -73.9243       2 -74.1425       3 -74.1889       4 -73.9510       5 -74.1785
       6 -74.1892       7 -73.9495       8 -73.9706       9 -73.9165      10 -74.1248
      11 -73.8731      12 -73.8357      13 -74.1617      14 -74.0482      15 -73.8825
      16 -74.1961      17 -73.9463      18 -74.1852      19 -73.9395      20 -74.0182
      21 -73.9728      22 -73.8990      23 -74.1993      24 -73.8902      25 -80.7865
      26 -80.8616      27 -80.8730      28 -80.9484      29 -80.8799      30 -80.8025
      31 -80.8471      32 -80.8115      33 -80.8518      34 -80.8330      35 -80.8292
      36 -80.8783      37 -80.8182      38 -80.8691      39 -80.8689      40 -80.8533
      41 -80.8697      42 -80.7971      43 -80.8304      44 -80.8553      45 -80.8809
      46 -80.8115      47 -80.8385      48 -80.8503

 E-fermi :  -1.1032     XC(G=0):  -4.5465     alpha+bet : -4.5211

[...]

 k-point     6 :      -0.2500    0.5000    0.0000
  band No.  band energies     occupation
      1      -8.5294      2.00000
      2      -8.1573      2.00000
      3      -7.9787      2.00000
      4      -7.3777      2.00000
      5      -7.2762      2.00000
      6      -7.0869      2.00000
      7      -6.9828      2.00000
      8      -6.9106      2.00000
      9      -6.8721      2.00000
     10      -6.8046      2.00000
     11      -6.7228      2.00000
     12      -6.6981      2.00000
     13      -6.6593      2.00000
     14      -6.6324      2.00000
     15      -6.6032      2.00000
     16      -6.5472      2.00000
     17      -6.5166      2.00000
     18      -6.5010      2.00000
     19      -6.4711      2.00000
     20      -6.4177      2.00000
     21      -6.3982      2.00000
     22      -6.3655      2.00000
     23      -6.3322      2.00000
     24      -6.3116      2.00000
     25      -6.2812      2.00000
     26      -6.2387      2.00000
     27      -6.2255      2.00000
     28      -6.1882      2.00000
     29      -6.1768      2.00000
     30      -6.1651      2.00000
     31      -6.1260      2.00000
     32      -6.0937      2.00000
     33      -6.0763      2.00000
     34      -6.0619      2.00000
     35      -6.0471      2.00000
     36      -6.0171      2.00000
     37      -5.9797      2.00000
     38      -5.9765      2.00000
     39      -5.9413      2.00000
     40      -5.9298      2.00000
     41      -5.9155      2.00000
     42      -5.8826      2.00000
     43      -5.8604      2.00000
     44      -5.8194      2.00000
     45      -5.7965      2.00000
     46      -5.7696      2.00000
     47      -5.7571      2.00000
     48      -5.7201      2.00000
     49      -5.6785      2.00000
     50      -5.6609      2.00000
     51      -5.6280      2.00000
     52      -5.5791      2.00000
     53      -5.5440      2.00000
     54      -5.5276      2.00000
     55      -5.4880      2.00000
     56      -5.4472      2.00000
     57      -5.4244      2.00000
     58      -5.3779      2.00000
     59      -5.3423      2.00000
     60      -5.3117      2.00000
[...]
    292       4.1986      0.00000
    293       4.4274      0.00000
    294       4.5425      0.00000
    295       4.5869      0.00000
    296       4.6405      0.00000
    297       4.7170      0.00000
    298       4.8027      0.00000
    299       4.8776      0.00000
    300       4.9193      0.00000
    301       4.9765      0.00000
    302       4.9893      0.00000
    303       5.0625      0.00000
    304       5.0933      0.00000
    305       5.1957      0.00000
    306       5.2496      0.00000

 soft charge-density along one line, spin component           1
         0         1         2         3         4         5         6         7         8         9
 total charge-density along one line

------------------------ aborting loop because EDIFF is reached ----------------------------------------

 VOLUME and BASIS-vectors are now :
  energy-cutoff  :      400.00
  volume of cell :     2567.68
      direct lattice vectors                 reciprocal lattice vectors
    11.002581515  0.000000000  0.000000000     0.090887761 -0.052474073  0.000000000
     5.501290758  9.528515099  0.000000000     0.000000000  0.104948147  0.000000000
     0.000000000  0.000000000 24.491785094     0.000000000  0.000000000  0.040830017

  length of vectors
    11.002581515 11.002581515 24.491785094     0.104948147  0.104948147  0.040830017

 FORCES acting on ions
    electron-ion (+dipol)            ewald-force                    non-local-force                 convergence-correction
   -.102E+02 0.656E+01 0.231E+04   0.104E+02 -.733E+01 -.231E+04   -.185E+00 0.755E+00 -.188E-01   -.996E-02 0.736E-02 -.202E-01
   0.192E+01 -.527E+01 0.888E+01   -.162E+01 0.439E+01 -.844E+01   -.302E+00 0.861E+00 -.459E+00   -.815E-02 0.184E-01 0.132E-01
   0.342E+01 -.373E+01 -.230E+02   -.293E+01 0.422E+01 0.224E+02   -.472E+00 -.499E+00 0.582E+00   -.139E-01 0.671E-02 -.877E-02
   -.150E+01 0.322E+00 0.225E+04   0.805E+00 -.119E-01 -.225E+04   0.700E+00 -.298E+00 -.219E+00   -.340E-02 -.141E-01 -.471E-02
   -.147E+02 -.470E+01 0.172E+02   0.144E+02 0.442E+01 -.166E+02   0.303E+00 0.291E+00 -.558E+00   -.231E-02 0.262E-02 -.413E-02
   -.710E+00 -.383E+01 -.306E+02   0.457E+00 0.373E+01 0.301E+02   0.249E+00 0.103E+00 0.486E+00   0.149E-02 -.639E-02 -.617E-02
   -.169E+02 -.156E+02 0.226E+04   0.174E+02 0.162E+02 -.226E+04   -.467E+00 -.637E+00 0.467E-01   0.889E-02 -.119E-01 -.156E-01
   0.146E+02 0.106E+02 -.226E+04   -.151E+02 -.102E+02 0.226E+04   0.515E+00 -.431E+00 0.179E+00   0.758E-02 -.576E-02 0.115E-01
   -.267E+02 -.100E+02 0.227E+04   0.272E+02 0.105E+02 -.227E+04   -.526E+00 -.502E+00 0.532E-02   -.345E-02 0.138E-01 -.244E-02
   0.826E+00 -.850E+00 0.566E+02   -.806E+00 0.819E+00 -.550E+02   -.947E-02 0.273E-01 -.163E+01   -.481E-02 0.194E-02 0.740E-02
   0.229E+02 -.414E+01 -.232E+04   -.234E+02 0.446E+01 0.232E+04   0.516E+00 -.330E+00 0.190E+00   -.161E-01 0.103E-01 0.152E-01
   -.129E+02 0.862E+00 -.231E+04   0.131E+02 -.115E+01 0.231E+04   -.263E+00 0.300E+00 0.633E-01   -.567E-02 -.737E-02 0.959E-02
   0.572E+01 0.112E+02 -.272E+02   -.523E+01 -.114E+02 0.272E+02   -.484E+00 0.240E+00 -.956E-02   -.188E-01 0.154E-01 0.788E-02
   -.148E+01 -.642E+01 0.226E+04   0.181E+01 0.716E+01 -.225E+04   -.341E+00 -.732E+00 -.391E+00   0.104E-01 -.194E-02 0.650E-02
   0.504E+01 0.156E+02 -.224E+04   -.467E+01 -.162E+02 0.224E+04   -.376E+00 0.680E+00 0.739E-01   0.120E-01 -.575E-02 0.401E-02
   0.126E+02 -.105E+01 0.315E+01   -.124E+02 0.504E+00 -.324E+01   -.133E+00 0.557E+00 0.704E-01   0.137E-01 -.762E-02 0.124E-01
   0.259E+02 0.637E+01 0.225E+04   -.271E+02 -.606E+01 -.225E+04   0.120E+01 -.311E+00 -.232E+00   -.251E-03 -.355E-03 -.779E-02
   0.367E+01 -.397E+01 -.490E+02   -.378E+01 0.443E+01 0.485E+02   0.103E+00 -.449E+00 0.484E+00   0.139E-01 -.205E-01 -.640E-02
   -.152E+02 -.182E+02 -.228E+04   0.155E+02 0.194E+02 0.228E+04   -.347E+00 -.119E+01 0.432E+00   0.875E-02 -.186E-03 0.111E-01
   0.199E+01 -.599E+01 0.228E+04   -.195E+01 0.563E+01 -.228E+04   -.388E-01 0.345E+00 -.189E+00   -.125E-02 0.119E-01 0.909E-02
   0.118E+02 0.834E+01 -.228E+04   -.122E+02 -.867E+01 0.228E+04   0.373E+00 0.339E+00 0.243E+00   0.129E-02 -.439E-02 0.125E-01
   -.195E+02 -.647E+01 -.230E+04   0.203E+02 0.624E+01 0.230E+04   -.808E+00 0.231E+00 -.474E-01   0.436E-02 -.332E-03 0.742E-03
   -.289E+01 0.226E+01 -.192E+02   0.260E+01 -.178E+01 0.193E+02   0.275E+00 -.478E+00 -.255E-01   0.180E-01 -.811E-03 0.255E-02
   0.224E+02 0.177E+02 0.228E+04   -.228E+02 -.188E+02 -.228E+04   0.369E+00 0.110E+01 0.655E-01   -.807E-03 -.596E-02 0.322E-02
   0.194E+02 0.732E+01 0.199E+04   -.198E+02 -.750E+01 -.199E+04   0.465E+00 0.181E+00 -.140E+01   -.756E-02 0.113E-02 -.526E-02
   0.719E+00 0.136E+01 -.908E+02   -.697E+00 -.142E+01 0.895E+02   -.565E-02 0.488E-01 0.129E+01   -.144E-01 0.709E-02 -.158E-02
   -.351E+01 0.664E+01 -.125E+02   0.316E+01 -.594E+01 0.125E+02   0.346E+00 -.705E+00 -.146E-01   0.180E-02 -.106E-01 -.236E-02
   -.459E+01 0.725E+01 -.118E+02   0.463E+01 -.732E+01 0.119E+02   -.423E-01 0.631E-01 -.393E-01   0.267E-02 0.607E-02 -.669E-02
   0.133E+02 0.746E+00 0.194E+04   -.136E+02 -.657E+00 -.194E+04   0.331E+00 -.967E-01 -.154E+01   0.266E-02 0.935E-03 -.294E-01
   -.979E+01 -.779E+01 -.200E+04   0.101E+02 0.800E+01 0.200E+04   -.253E+00 -.211E+00 0.139E+01   -.977E-02 -.397E-02 0.981E-02
   0.402E+00 0.313E+01 0.197E+04   0.831E-01 -.322E+01 -.197E+04   -.498E+00 0.102E+00 -.153E+01   0.956E-02 -.121E-01 -.498E-02
   0.114E+02 0.691E+01 -.199E+04   -.114E+02 -.696E+01 0.199E+04   0.773E-01 0.480E-01 0.147E+01   -.462E-02 -.273E-02 -.286E-02
   0.220E+02 0.324E+00 -.197E+04   -.227E+02 -.614E+00 0.197E+04   0.610E+00 0.281E+00 0.175E+01   -.102E-02 0.108E-01 0.165E-01
   -.231E+02 -.688E+01 0.194E+04   0.236E+02 0.701E+01 -.194E+04   -.455E+00 -.131E+00 -.162E+01   -.641E-02 -.478E-02 -.508E-02
   -.514E+01 -.557E+01 -.200E+04   0.504E+01 0.580E+01 0.199E+04   0.123E+00 -.233E+00 0.150E+01   -.864E-02 0.236E-02 0.110E-01
   -.320E+01 -.640E+01 0.440E+02   0.301E+01 0.636E+01 -.432E+02   0.196E+00 0.480E-01 -.803E+00   -.613E-02 -.672E-02 0.922E-02
   -.361E+01 -.934E+00 0.201E+04   0.374E+01 0.130E+01 -.200E+04   -.133E+00 -.384E+00 -.145E+01   -.487E-02 0.856E-02 -.162E-01
   0.121E+02 0.584E+01 -.197E+04   -.120E+02 -.577E+01 0.197E+04   -.137E-01 -.769E-01 0.166E+01   -.351E-02 0.731E-02 0.115E-01
   0.497E+01 0.471E+01 0.275E+02   -.523E+01 -.461E+01 -.271E+02   0.252E+00 -.104E+00 -.360E+00   0.677E-02 0.578E-02 0.695E-02
   -.160E+02 -.924E+01 -.197E+04   0.163E+02 0.916E+01 0.196E+04   -.308E+00 0.777E-01 0.177E+01   -.697E-03 0.609E-02 0.398E-02
   0.408E+01 -.525E+01 -.275E+02   -.351E+01 0.523E+01 0.270E+02   -.582E+00 0.326E-01 0.485E+00   0.158E-03 -.111E-01 -.107E-01
   0.153E+02 0.152E+02 0.198E+04   -.155E+02 -.155E+02 -.198E+04   0.219E+00 0.272E+00 -.171E+01   -.816E-02 -.691E-02 0.110E-01
   -.178E+02 -.141E+02 0.199E+04   0.180E+02 0.139E+02 -.198E+04   -.270E+00 0.173E+00 -.143E+01   0.101E-01 0.329E-03 0.361E-03
   -.187E+02 -.746E+01 -.197E+04   0.187E+02 0.762E+01 0.197E+04   -.379E-01 -.173E+00 0.158E+01   0.878E-02 0.112E-01 0.179E-01
   -.492E+01 -.148E+01 0.437E+02   0.477E+01 0.137E+01 -.429E+02   0.135E+00 0.116E+00 -.822E+00   0.138E-01 -.579E-02 0.170E-01
   0.200E+01 0.145E+02 -.201E+04   -.175E+01 -.146E+02 0.201E+04   -.244E+00 0.148E+00 0.131E+01   -.271E-02 -.820E-02 0.265E-02
   0.910E+00 0.395E+01 0.195E+04   -.665E+00 -.400E+01 -.195E+04   -.250E+00 0.411E-01 -.171E+01   0.250E-02 0.135E-01 -.212E-01
   -.625E+01 -.231E+01 -.197E+04   0.579E+01 0.191E+01 0.196E+04   0.452E+00 0.403E+00 0.168E+01   0.516E-02 -.495E-02 0.156E-01
   0.235E-01 0.647E-01 -.622E+00   -.604E-12 0.174E-12 0.455E-12   -.369E-01 -.106E+00 0.581E+00   -.312E-02 -.158E-02 0.778E-01

 POSITION                                       TOTAL-FORCE (eV/Angst)
      5.50629      3.16211      9.61274         0.003234     -0.004248      0.015541
      6.89060      3.94413     12.23930        -0.009087      0.003244      0.000380
      9.63629      8.75148     12.26143         0.005314      0.000185     -0.005770
      6.86343      0.80042      9.71344         0.000109     -0.000768     -0.001425
     12.37883      8.72769     12.22691        -0.008111      0.008112     -0.001232
      6.88166      8.72893     12.27208        -0.002052     -0.001585     -0.000957
      9.64734      0.82045      9.72658         0.002272      0.003437      0.003017
      8.23047      0.00031     14.75908         0.002711      0.000119      0.003613
      6.90534      5.57965      9.70047         0.000788      0.002964     -0.003566
      4.13045      3.95968     12.19564         0.006459     -0.000540      0.005528
      8.21840      4.78380     14.85323         0.001591     -0.000221     -0.002737
      2.76288     -0.00900     14.82942        -0.004532      0.008754     -0.000618
      8.26615      6.33350     12.27545        -0.003875     -0.001719     -0.000288
      4.13190      5.56868      9.68372        -0.006940      0.005903     -0.004940
      4.13358      7.12159     14.71723         0.001386     -0.011168      0.004273
     15.13052      8.71178     12.24031        -0.000472      0.004904     -0.008357
     12.33668      5.56375      9.72818         0.000198     -0.001593     -0.007171
     10.99732      1.59699     12.29468        -0.000120     -0.003466      0.004271
     11.01285      4.80186     14.80712        -0.000412      0.000808      0.006186
     13.74866      7.94709      9.66298        -0.000782     -0.002881     -0.014434
      9.60971      2.38267     14.81604        -0.001583      0.000159      0.005075
      1.40569      2.38251     14.83944        -0.000984      0.002167      0.008449
     12.37238      3.98245     12.26647         0.004925     -0.000747      0.000440
      2.72189      3.13520      9.67242        -0.003372     -0.002459     -0.007205
     10.96659      7.93680      9.85757         0.003438      0.003618     -0.000816
      9.62477      3.96804     12.34959         0.003008     -0.000265      0.002619
      8.25575      1.58683     12.26301         0.002278     -0.007721      0.000155
     11.01330      6.33627     12.25874        -0.001778      0.000289      0.001441
     10.98408      3.18666      9.92708         0.005912     -0.005546      0.006870
      9.63534      7.16395     14.65854         0.002467     -0.003740     -0.001043
      1.38303      0.78478      9.89796        -0.003648      0.001268      0.006032
      6.87183      7.14504     14.64515        -0.001874     -0.003139      0.002245
      6.84730      2.37271     14.60493        -0.001099      0.002832     -0.003659
      8.27132      3.19036      9.90956         0.006453      0.002022     -0.003689
      5.49594      0.01593     14.62711         0.010162     -0.002324     -0.001442
      5.51278      1.58623     12.19172        -0.002427      0.000492     -0.007300
      8.25989      7.95866      9.86114        -0.003946     -0.004020      0.006026
      5.49297      4.75753     14.58713        -0.001256     -0.000319     -0.003167
      5.49671      6.33604     12.20963         0.002164     -0.001743      0.006318
      4.14479      2.38854     14.58717        -0.001490      0.003081      0.003827
      2.76412      1.59494     12.27189        -0.003556      0.007831      0.002086
      4.11114      0.77966      9.86376         0.002484     -0.000224     -0.008657
      5.52153      7.94926      9.84373        -0.001219      0.001736      0.001877
      2.76155      4.76978     14.59614        -0.000648     -0.003107     -0.005372
     13.75538      6.34815     12.19011        -0.002628      0.001757     -0.006659
      0.00029     -0.00799     14.69349         0.001151     -0.001502      0.001632
      9.62616      5.55299      9.91839        -0.002155      0.001089      0.003028
     12.36934      7.14845     14.59490         0.001544     -0.001727     -0.000426
    total drift:                               -0.016436     -0.042996      0.036248

  FREE ENERGIE OF THE ION-ELECTRON SYSTEM (eV)
  free  energy   TOTEN  =      -192.15132150 eV

  energy  without entropy=     -191.91478453  energy(sigma->0) =     -192.03305301

 d Force = 0.3689527E-03[ 0.232E-03, 0.506E-03]  d Energy = 0.3602077E-03 0.875E-05
 d Force = 0.9980916E+01[ 0.999E+01, 0.998E+01]  d Ewald  = 0.9980916E+01 0.316E-06

 stress matrix after NEB project (eV)
      0.00000      0.00000      0.00000
      0.00000      0.00000      0.00000
      0.00000      0.00000      0.00000
  FORCES: max atom, RMS     0.016432    0.007543
  FORCE total and by dimension    0.052256    0.015541
  Stress total and by dimension    0.000000    0.000000
 Conjugate gradient step on ions:
 trial-energy change:   -0.000360  1 .order   -0.000369   -0.000506   -0.000232
  (g-gl).g = 0.267E-03      g.g   = 0.273E-03  gl.gl    = 0.595E-03
 g(Force)  = 0.273E-03   g(Stress)= 0.000E+00 ortho     = 0.110E-04
 gamma     =   0.44826
 trial     =   1.82469
 opt step  =   5.19379  (harmonic =   3.36251) maximal distance =0.00444803
 next E    =  -192.151480   (d E  =  -0.00052)

 reached required accuracy - stopping structural energy minimisation