 vasp.5.4.1 24Jun15 (build Mar 14 2019 10:18:33) complex

 executed on INTEL-19.0.2+OPENMPI date 2022.06.20  18:30:35

 INCAR:
 POTCAR:    PAW_PBE Au 04Oct2007
 POTCAR:    PAW_PBE Pd 04Jan2005
 POTCAR:    PAW_PBE Au 04Oct2007

 POTCAR:    PAW_PBE Pd 04Jan2005

 Optimization of the real space projectors (new method)

 maximal supplied QI-value         = 15.12
 optimisation between [QCUT,QGAM] = [ 10.13, 20.41] = [ 28.73,116.64] Ry
 Optimized for a Real-space Cutoff    1.51 Angstroem

   l    n(q)    QCUT    max X(q) W(low)/X(q) W(high)/X(q)  e(spline)
   2      8    10.129    60.898    0.46E-03    0.46E-03    0.14E-06
   2      8    10.129    58.894    0.47E-03    0.47E-03    0.14E-06
   0      9    10.129   109.617    0.16E-03    0.11E-03    0.54E-07
   0      9    10.129    75.026    0.15E-03    0.11E-03    0.52E-07
   1      9    10.129    16.344    0.96E-04    0.15E-03    0.14E-06
   1      9    10.129    10.160    0.81E-04    0.12E-03    0.11E-06
 Optimization of the real space projectors (new method)

 maximal supplied QI-value         = 14.36
 optimisation between [QCUT,QGAM] = [ 10.20, 20.39] = [ 29.12,116.47] Ry
 Optimized for a Real-space Cutoff    1.51 Angstroem

   l    n(q)    QCUT    max X(q) W(low)/X(q) W(high)/X(q)  e(spline)
   2      8    10.197    59.108    0.26E-03    0.14E-03    0.96E-07
   2      8    10.197    58.101    0.27E-03    0.14E-03    0.98E-07
   0      9    10.197   102.235    0.54E-04    0.60E-05    0.72E-07
   0      9    10.197    58.388    0.52E-04    0.60E-05    0.68E-07
   1      9    10.197    22.191    0.18E-03    0.25E-03    0.79E-07
   1      9    10.197    15.590    0.15E-03    0.21E-03    0.69E-07
  PAW_PBE Au 04Oct2007                  :
  PAW_PBE Pd 04Jan2005                  :

 POSCAR: Au Pd
  positions in cartesian coordinates
 exchange correlation table for  LEXCH =        8
   RHO(1)=    0.500       N(1)  =     2000
   RHO(2)=  100.500       N(2)  =     4000

 VTST: version 3.2, (02/03/18)

 CHAIN: initializing optimizer

 OPT: Using VASP Conjugate-Gradient optimizer
 CHAIN: Read ICHAIN            0

 POSCAR: Au Pd
  positions in cartesian coordinates

 ion  position               nearest neighbor table
   1  0.500  0.500  0.592-   8 2.75  33 2.75  28 2.75   9 2.75  34 2.75  47 2.75  38 2.75  30 2.75
                            35 2.75
   2  0.167  0.917  0.500-  15 2.75  34 2.75  22 2.75  11 2.75  23 2.75   8 2.75  39 2.75  14 2.75
                            25 2.75  26 2.75  37 2.75  43 2.75
   3  0.833  0.083  0.408-  23 2.75  15 2.75   6 2.75  31 2.75  36 2.75  24 2.75  26 2.75  14 2.75
                            32 2.75
   4  0.417  0.167  0.500-  13 2.75   5 2.75   7 2.75  12 2.75  25 2.75  35 2.75  41 2.75  11 2.75
                            32 2.75  42 2.75  24 2.75  47 2.75
   5  0.500  0.000  0.592-   4 2.75  12 2.75   9 2.75   7 2.75  47 2.75  48 2.75  27 2.75  43 2.75
                            25 2.75
   6  0.833  0.333  0.408-  20 2.75  10 2.75   3 2.75  21 2.75  26 2.75  36 2.75  46 2.75  23 2.75
                            33 2.75
   7  0.250  0.250  0.592-  41 2.75   4 2.75  16 2.75  38 2.75   5 2.75  43 2.75  45 2.75  47 2.75
                            11 2.75
   8  0.417  0.667  0.500-  40 2.75   1 2.75  34 2.75  33 2.75   2 2.75  35 2.75  25 2.75  39 2.75
                            29 2.75  37 2.75   9 2.75  21 2.75
   9  0.500  0.750  0.592-  25 2.75  29 2.75   1 2.75   5 2.75  30 2.75  43 2.75  34 2.75  48 2.75
                             8 2.75
  10  0.833  0.583  0.408-  17 2.75   6 2.75  19 2.75  31 2.75  46 2.75  18 2.75  21 2.75  20 2.75
                            29 2.75
  11  0.167  0.167  0.500-  26 2.75  43 2.75  45 2.75   2 2.75  41 2.75  20 2.75  25 2.75  23 2.75
                             4 2.75  46 2.75   7 2.75  13 2.75
  12  0.667  0.917  0.500-  19 2.75  48 2.75   5 2.75   4 2.75  29 2.75  32 2.75  17 2.75  25 2.75
                            14 2.75  24 2.75  27 2.75  31 2.75
  13  0.333  0.083  0.408-   4 2.75  19 2.75  37 2.75  42 2.75  46 2.75  26 2.75  24 2.75  25 2.75
                            11 2.75
  14  0.917  0.917  0.500-  31 2.75  44 2.75  27 2.75  23 2.75  32 2.75  39 2.75  17 2.75  12 2.75
                             2 2.75   3 2.75  15 2.75  22 2.75
  15  0.083  0.833  0.408-   2 2.75   3 2.75  18 2.75  26 2.75  40 2.75  37 2.75  31 2.75  39 2.75
                            14 2.75
  16  0.000  0.500  0.592-  17 2.75  41 2.75   7 2.75  44 2.75  45 2.75  48 2.75  30 2.75  38 2.75
                            20 2.75
  17  0.917  0.667  0.500-  10 2.75  16 2.75  48 2.75  12 2.75  20 2.75  41 2.75  14 2.75  29 2.75
                            39 2.75  31 2.75  44 2.75  18 2.75
  18  0.083  0.583  0.408-  39 2.75  31 2.75  15 2.75  42 2.75  46 2.75  10 2.75  40 2.75  41 2.75
                            17 2.75
  19  0.583  0.833  0.408-  12 2.75  10 2.75  13 2.75  21 2.75  24 2.75  31 2.75  37 2.75  29 2.75
                            25 2.75
  20  0.917  0.417  0.500-   6 2.75  45 2.75  30 2.75  23 2.75  29 2.75  11 2.75  17 2.75  41 2.75
                            33 2.75  10 2.75  16 2.75  46 2.75
  21  0.583  0.583  0.408-  29 2.75  19 2.75   6 2.75  36 2.75  37 2.75  10 2.75  40 2.75  33 2.75
                             8 2.75
  22  0.000  0.000  0.592-  23 2.75   2 2.75  28 2.75  34 2.75  44 2.75  45 2.75  27 2.75  43 2.75
                            14 2.75
  23  0.917  0.167  0.500-   3 2.75  22 2.75  28 2.75  20 2.75   2 2.75  14 2.75  33 2.75  32 2.75
                            11 2.75   6 2.75  26 2.75  45 2.75
  24  0.583  0.083  0.408-  32 2.75  31 2.75  19 2.75  36 2.75  42 2.75  13 2.75   3 2.75  12 2.75
                             4 2.75
  25  0.417  0.917  0.500-  37 2.75   9 2.75  43 2.75  11 2.75  29 2.75   8 2.75   4 2.75  12 2.75
                             2 2.75  13 2.75  19 2.75   5 2.75
  26  0.083  0.083  0.408-  11 2.75   6 2.75  15 2.75  37 2.75  46 2.75  13 2.75   3 2.75   2 2.75
                            23 2.75
  27  0.750  0.000  0.592-  32 2.75  14 2.75  28 2.75  44 2.75  47 2.75  48 2.75  22 2.75   5 2.75
                            12 2.75
  28  0.750  0.250  0.592-  33 2.75  23 2.75   1 2.75  27 2.75  30 2.75  22 2.75  45 2.75  47 2.75
                            32 2.75
  29  0.667  0.667  0.500-  21 2.75  30 2.75   9 2.75  12 2.75  25 2.75  20 2.75  33 2.75  17 2.75
                             8 2.75  19 2.75  10 2.75  48 2.75
  30  0.750  0.500  0.592-  29 2.75  20 2.75  28 2.75   9 2.75  45 2.75  48 2.75  16 2.75   1 2.75
                            33 2.75
  31  0.833  0.833  0.408-  14 2.75  10 2.75   3 2.75  18 2.75  24 2.75  19 2.75  15 2.75  17 2.75
                            12 2.75
  32  0.667  0.167  0.500-  24 2.75  27 2.75  47 2.75  14 2.75  33 2.75  35 2.75  12 2.75  23 2.75
                             4 2.75  36 2.75   3 2.75  28 2.75
  33  0.667  0.417  0.500-  36 2.75  28 2.75   1 2.75   8 2.75  29 2.75  32 2.75  23 2.75  35 2.75
                            20 2.75  21 2.75  30 2.75   6 2.75
  34  0.250  0.750  0.592-   2 2.75   8 2.75   1 2.75  22 2.75  38 2.75  43 2.75   9 2.75  44 2.75
                            39 2.75
  35  0.417  0.417  0.500-  42 2.75  47 2.75  38 2.75   4 2.75  39 2.75   8 2.75  32 2.75  33 2.75
                            41 2.75  40 2.75   1 2.75  36 2.75
  36  0.583  0.333  0.408-  33 2.75  21 2.75  24 2.75   3 2.75  40 2.75   6 2.75  42 2.75  32 2.75
                            35 2.75
  37  0.333  0.833  0.408-  25 2.75  21 2.75  13 2.75  26 2.75  40 2.75  15 2.75  19 2.75   8 2.75
                             2 2.75
  38  0.250  0.500  0.592-  39 2.75  35 2.75   7 2.75  34 2.75  44 2.75  47 2.75  16 2.75   1 2.75
                            41 2.75
  39  0.167  0.667  0.500-  18 2.75  38 2.75  44 2.75  35 2.75  14 2.75  41 2.75   2 2.75  17 2.75
                             8 2.75  15 2.75  34 2.75  40 2.75
  40  0.333  0.583  0.408-   8 2.75  15 2.75  36 2.75  37 2.75  42 2.75  21 2.75  18 2.75  35 2.75
                            39 2.75
  41  0.167  0.417  0.500-  46 2.75   7 2.75  16 2.75   4 2.75  17 2.75  39 2.75  11 2.75  20 2.75
                            35 2.75  18 2.75  42 2.75  38 2.75
  42  0.333  0.333  0.408-  35 2.75  18 2.75  24 2.75  13 2.75  40 2.75  36 2.75  46 2.75   4 2.75
                            41 2.75
  43  0.250  0.000  0.592-  11 2.75  25 2.75   7 2.75   9 2.75  34 2.75  45 2.75  22 2.75   5 2.75
                             2 2.75
  44  0.000  0.750  0.592-  14 2.75  39 2.75  22 2.75  27 2.75  38 2.75  16 2.75  34 2.75  48 2.75
                            17 2.75
  45  0.000  0.250  0.592-  20 2.75  11 2.75  16 2.75  22 2.75  30 2.75  43 2.75   7 2.75  28 2.75
                            23 2.75
  46  0.083  0.333  0.408-  41 2.75  13 2.75  18 2.75  26 2.75  10 2.75   6 2.75  42 2.75  11 2.75
                            20 2.75
  47  0.500  0.250  0.592-  35 2.75  32 2.75  27 2.75   1 2.75   5 2.75  38 2.75  28 2.75   7 2.75
                             4 2.75
  48  0.750  0.750  0.592-  12 2.75  17 2.75  16 2.75   5 2.75  27 2.75  30 2.75   9 2.75  44 2.75
                            29 2.75

  LATTYP: Found a hexagonal cell.
 ALAT       =    11.0025815153
 C/A-ratio  =     2.2260035120

  Lattice vectors:

 A1 = (   5.5012907576,  -9.5285150994,   0.0000000000)
 A2 = ( -11.0025815153,   0.0000000000,   0.0000000000)
 A3 = (   0.0000000000,   0.0000000000, -24.4917850943)

Analysis of symmetry for initial positions (statically):
 Subroutine PRICEL returns:
 Original cell was already a primitive cell.

 Routine SETGRP: Setting up the symmetry group for a
 hexagonal supercell.

 Subroutine GETGRP returns: Found  1 space group operations
 (whereof  1 operations were pure point group operations)
 out of a pool of 24 trial point group operations.

The static configuration has the point symmetry C_1 .

Analysis of symmetry for dynamics (positions and initial velocities):
 Subroutine PRICEL returns:
 Original cell was already a primitive cell.

 Routine SETGRP: Setting up the symmetry group for a
 hexagonal supercell.

 Subroutine GETGRP returns: Found  1 space group operations
 (whereof  1 operations were pure point group operations)
 out of a pool of 24 trial point group operations.

The dynamic configuration has the point symmetry C_1 .

 KPOINTS: Automatic mesh

Automatic generation of k-mesh.
Space group operators:
 irot       det(A)        alpha          n_x          n_y          n_z        tau_x        tau_y        tau_z
    1     1.000000     0.000000     1.000000     0.000000     0.000000     0.000000     0.000000     0.000000

 Subroutine IBZKPT returns following result:

 Found      6 irreducible k-points:

 Following reciprocal coordinates:
            Coordinates               Weight
  0.250000  0.250000  0.000000     16.000000
  0.000000  0.250000  0.000000     16.000000
 -0.250000  0.000000  0.000000     16.000000
 -0.250000  0.250000  0.000000     16.000000
  0.500000 -0.250000  0.000000     16.000000
 -0.250000  0.500000  0.000000     16.000000

 Following cartesian coordinates:
            Coordinates               Weight
  0.022722  0.013119  0.000000     16.000000
  0.000000  0.026237  0.000000     16.000000
[...]
 dipolmoment           0.000000      0.000000      0.002075 electrons x Angstroem
 Tr[quadrupol]    -10279.321183

 energy correction for charged system         0.000000 eV
 dipol+quadrupol energy correction           -0.000000 eV
 added-field ion interaction          0.001078 eV  (added to PSCEN)

  free energy =  -0.192132484505E+03  energy without entropy=  -0.191912645086E+03

 average (electrostatic) potential at core
  the test charge radii are     1.2098  1.1199
  (the norm of the test charge is              1.0000)
       1 -73.8719       2 -74.2168       3 -73.9586       4 -74.1760       5 -73.9878
       6 -73.8514       7 -73.8882       8 -74.1310       9 -73.9185      10 -73.9981
      11 -74.2293      12 -74.2056      13 -73.9468      14 -74.2050      15 -73.8910
      16 -73.8806      17 -74.1928      18 -73.9067      19 -74.0361      20 -74.2011
      21 -74.0022      22 -73.8363      23 -74.2009      24 -73.9380      25 -80.8687
      26 -80.8512      27 -80.8400      28 -80.8529      29 -80.8549      30 -80.8407
      31 -80.7588      32 -80.9041      33 -80.9164      34 -80.8230      35 -80.9815
      36 -80.8599      37 -80.7964      38 -80.8430      39 -80.8978      40 -80.8536
      41 -80.9207      42 -80.8105      43 -80.8219      44 -80.8272      45 -80.8239
      46 -80.8585      47 -80.8537      48 -80.8214

 E-fermi :  -1.1140     XC(G=0):  -4.5460     alpha+bet : -4.5211

[...]

 k-point     6 :      -0.2500    0.5000    0.0000
  band No.  band energies     occupation
      1      -8.5947      2.00000
      2      -8.2318      2.00000
      3      -7.8558      2.00000
      4      -7.4074      2.00000
      5      -7.2247      2.00000
      6      -7.1282      2.00000
      7      -7.0433      2.00000
      8      -6.9866      2.00000
      9      -6.9370      2.00000
     10      -6.8524      2.00000
     11      -6.7790      2.00000
     12      -6.7373      2.00000
     13      -6.6569      2.00000
     14      -6.6237      2.00000
     15      -6.5828      2.00000
     16      -6.5631      2.00000
     17      -6.5383      2.00000
     18      -6.5123      2.00000
     19      -6.4565      2.00000
     20      -6.4106      2.00000
     21      -6.3952      2.00000
     22      -6.3832      2.00000
     23      -6.3355      2.00000
     24      -6.3012      2.00000
     25      -6.2891      2.00000
     26      -6.2706      2.00000
     27      -6.2341      2.00000
     28      -6.2177      2.00000
     29      -6.1731      2.00000
     30      -6.1631      2.00000
     31      -6.1483      2.00000
     32      -6.1199      2.00000
     33      -6.1109      2.00000
     34      -6.0894      2.00000
     35      -6.0555      2.00000
     36      -6.0368      2.00000
     37      -6.0140      2.00000
     38      -5.9680      2.00000
     39      -5.9531      2.00000
     40      -5.9328      2.00000
     41      -5.8995      2.00000
     42      -5.8794      2.00000
     43      -5.8542      2.00000
     44      -5.8394      2.00000
     45      -5.7891      2.00000
     46      -5.7462      2.00000
     47      -5.7352      2.00000
     48      -5.6896      2.00000
     49      -5.6773      2.00000
     50      -5.6336      2.00000
     51      -5.5981      2.00000
     52      -5.5802      2.00000
     53      -5.5708      2.00000
     54      -5.5353      2.00000
     55      -5.5059      2.00000
     56      -5.4538      2.00000
     57      -5.3920      2.00000
     58      -5.3543      2.00000
     59      -5.3152      2.00000
     60      -5.2858      2.00000
[...]
    292       4.2079      0.00000
    293       4.4917      0.00000
    294       4.5448      0.00000
    295       4.5773      0.00000
    296       4.6310      0.00000
    297       4.7462      0.00000
    298       4.8311      0.00000
    299       4.8775      0.00000
    300       4.8999      0.00000
    301       4.9480      0.00000
    302       5.0393      0.00000
    303       5.0821      0.00000
    304       5.1183      0.00000
    305       5.1908      0.00000
    306       5.2654      0.00000

 soft charge-density along one line, spin component           1
         0         1         2         3         4         5         6         7         8         9
 total charge-density along one line

------------------------ aborting loop because EDIFF is reached ----------------------------------------

 VOLUME and BASIS-vectors are now :
  energy-cutoff  :      400.00
  volume of cell :     2567.68
      direct lattice vectors                 reciprocal lattice vectors
    11.002581515  0.000000000  0.000000000     0.090887761 -0.052474073  0.000000000
     5.501290758  9.528515099  0.000000000     0.000000000  0.104948147  0.000000000
     0.000000000  0.000000000 24.491785094     0.000000000  0.000000000  0.040830017

  length of vectors
    11.002581515 11.002581515 24.491785094     0.104948147  0.104948147  0.040830017

 FORCES acting on ions
    electron-ion (+dipol)            ewald-force                    non-local-force                 convergence-correction
   -.178E+01 0.783E+01 -.228E+04   0.141E+01 -.855E+01 0.228E+04   0.383E+00 0.723E+00 0.344E+00   -.834E-02 -.562E-02 0.110E-02
   0.952E+01 -.278E+01 -.408E+02   -.885E+01 0.232E+01 0.408E+02   -.670E+00 0.456E+00 0.160E-02   -.120E-02 -.110E-02 -.241E-02
   -.251E+01 0.893E+00 0.226E+04   0.230E+01 -.749E+00 -.226E+04   0.211E+00 -.142E+00 -.628E-01   -.197E-02 0.199E-02 0.107E-03
   0.910E+01 0.117E+02 -.206E+02   -.854E+01 -.107E+02 0.205E+02   -.570E+00 -.960E+00 0.538E-01   0.553E-02 0.337E-02 0.201E-02
   -.131E+02 0.356E+01 -.227E+04   0.133E+02 -.369E+01 0.227E+04   -.248E+00 0.126E+00 0.228E+00   0.249E-02 0.737E-02 0.103E-02
   -.347E+01 0.354E+01 0.230E+04   0.362E+01 -.395E+01 -.230E+04   -.162E+00 0.407E+00 0.154E+00   -.353E-02 -.138E-02 -.151E-02
   -.724E+01 -.237E+01 -.232E+04   0.710E+01 0.254E+01 0.232E+04   0.140E+00 -.179E+00 0.875E-02   0.649E-02 0.169E-02 0.143E-02
   -.112E+02 0.245E+01 -.370E+02   0.111E+02 -.261E+01 0.364E+02   0.157E+00 0.164E+00 0.598E+00   -.600E-02 -.161E-02 -.329E-02
   -.501E+01 0.685E+01 -.226E+04   0.523E+01 -.668E+01 0.226E+04   -.212E+00 -.170E+00 0.273E+00   -.405E-02 0.155E-02 0.349E-02
   -.665E+01 0.176E+01 0.226E+04   0.715E+01 -.166E+01 -.226E+04   -.501E+00 -.956E-01 0.797E-02   0.659E-04 -.628E-04 -.386E-02
   -.102E+02 -.166E+01 -.502E+02   0.103E+02 0.167E+01 0.502E+02   -.141E+00 -.359E-02 0.349E-01   0.831E-03 -.735E-03 0.212E-03
   0.110E+02 -.511E+01 -.546E+01   -.112E+02 0.488E+01 0.596E+01   0.158E+00 0.231E+00 -.508E+00   0.191E-02 0.698E-02 0.110E-02
   0.106E+02 -.900E+01 0.226E+04   -.114E+02 0.925E+01 -.226E+04   0.861E+00 -.255E+00 -.207E-01   0.155E-02 -.673E-04 -.100E-02
   -.102E+02 -.652E+01 -.187E+02   0.982E+01 0.629E+01 0.192E+02   0.412E+00 0.227E+00 -.530E+00   0.183E-03 0.226E-02 0.175E-02
   -.112E+02 0.574E+01 0.227E+04   0.117E+02 -.593E+01 -.227E+04   -.472E+00 0.195E+00 -.842E-01   0.306E-02 -.133E-02 -.106E-02
   0.645E+01 -.114E+02 -.231E+04   -.638E+01 0.119E+02 0.231E+04   -.754E-01 -.410E+00 0.126E+00   0.617E-02 -.172E-02 0.288E-02
   0.189E+01 0.115E+02 -.186E+02   -.163E+01 -.115E+02 0.191E+02   -.262E+00 -.170E-03 -.580E+00   0.433E-02 0.232E-02 0.922E-03
   -.103E+02 0.132E+02 0.224E+04   0.107E+02 -.136E+02 -.224E+04   -.389E+00 0.426E+00 -.291E+00   0.459E-02 -.772E-03 -.286E-02
   0.804E+01 -.185E+01 0.223E+04   -.820E+01 0.165E+01 -.223E+04   0.157E+00 0.196E+00 -.397E+00   -.210E-02 0.170E-02 -.296E-02
   0.137E+01 -.471E+01 -.103E+02   -.176E+01 0.504E+01 0.109E+02   0.388E+00 -.315E+00 -.578E+00   0.813E-03 -.443E-02 -.477E-03
   0.171E+02 -.911E+00 0.223E+04   -.180E+02 0.692E+00 -.223E+04   0.888E+00 0.220E+00 -.507E+00   -.589E-02 -.782E-03 -.303E-02
   0.963E+01 -.101E+01 -.234E+04   -.957E+01 0.965E+00 0.234E+04   -.515E-01 0.476E-01 -.136E+00   -.193E-02 -.151E-03 0.982E-03
   0.463E+01 0.631E+00 -.121E+02   -.543E+01 0.296E-01 0.127E+02   0.788E+00 -.653E+00 -.571E+00   -.289E-02 -.167E-02 0.282E-03
   0.612E+01 -.116E+02 0.228E+04   -.538E+01 0.122E+02 -.228E+04   -.741E+00 -.554E+00 0.259E-01   0.107E-02 0.454E-02 0.659E-03
   -.897E+01 -.114E+01 -.199E+02   0.877E+01 0.867E+00 0.199E+02   0.195E+00 0.272E+00 -.292E-02   -.557E-03 0.211E-02 -.742E-03
   -.129E+02 0.484E+00 0.196E+04   0.131E+02 -.527E+00 -.196E+04   -.163E+00 0.482E-01 -.112E+01   -.866E-03 -.246E-02 -.921E-04
   -.469E-01 -.100E+01 -.200E+04   0.624E-01 0.135E+01 0.200E+04   -.171E-01 -.347E+00 0.149E+01   -.473E-03 0.550E-02 -.154E-02
   0.546E+01 -.346E+01 -.199E+04   -.552E+01 0.349E+01 0.199E+04   0.685E-01 -.334E-01 0.177E+01   -.678E-02 -.214E-02 -.140E-02
   0.421E+01 -.442E-01 0.109E+02   -.426E+01 -.107E+00 -.101E+02   0.551E-01 0.149E+00 -.812E+00   -.191E-02 0.191E-02 -.363E-02
   0.476E+01 0.192E+00 -.198E+04   -.468E+01 -.429E+00 0.198E+04   -.740E-01 0.239E+00 0.183E+01   -.160E-02 -.265E-02 0.259E-02
   -.328E+01 0.269E+01 0.197E+04   0.316E+01 -.267E+01 -.197E+04   0.116E+00 -.145E-01 -.968E+00   0.113E-02 0.185E-02 -.362E-02
   -.253E+01 0.275E+01 0.179E+02   0.260E+01 -.200E+01 -.172E+02   -.646E-01 -.761E+00 -.738E+00   -.304E-02 0.371E-02 0.178E-02
   -.784E+01 -.173E+01 -.923E+00   0.748E+01 0.145E+01 0.142E+01   0.378E+00 0.276E+00 -.498E+00   -.706E-02 -.518E-02 -.220E-02
   0.659E+01 0.743E+01 -.201E+04   -.710E+01 -.737E+01 0.201E+04   0.504E+00 -.597E-01 0.155E+01   -.199E-02 -.320E-02 0.371E-02
   -.142E+01 -.232E+00 -.372E+02   0.121E+01 0.965E-01 0.368E+02   0.205E+00 0.139E+00 0.352E+00   0.388E-03 -.335E-02 0.178E-02
   0.115E+02 -.108E+02 0.195E+04   -.119E+02 0.110E+02 -.195E+04   0.410E+00 -.214E+00 -.188E+01   -.385E-02 0.256E-03 -.942E-03
   0.464E+01 -.328E+00 0.197E+04   -.468E+01 0.489E+00 -.197E+04   0.502E-01 -.158E+00 -.133E+01   -.249E-02 -.250E-02 -.238E-03
   -.698E+01 -.667E+01 -.198E+04   0.704E+01 0.688E+01 0.198E+04   -.677E-01 -.196E+00 0.191E+01   0.422E-02 -.379E-02 0.345E-02
   0.365E+01 -.197E+01 0.673E+01   -.355E+01 0.131E+01 -.593E+01   -.105E+00 0.658E+00 -.793E+00   0.348E-02 -.139E-02 0.945E-03
   -.206E-01 0.602E+01 0.197E+04   -.575E-01 -.644E+01 -.196E+04   0.736E-01 0.422E+00 -.174E+01   0.808E-03 -.190E-02 -.315E-03
   0.807E+01 0.574E+00 -.524E+02   -.724E+01 -.322E+00 0.519E+02   -.838E+00 -.251E+00 0.445E+00   0.609E-02 -.207E-02 0.345E-02
   0.190E+01 -.882E+01 0.195E+04   -.178E+01 0.919E+01 -.195E+04   -.126E+00 -.375E+00 -.162E+01   0.475E-02 0.420E-03 0.165E-02
   0.215E+01 0.520E+01 -.201E+04   -.234E+01 -.516E+01 0.201E+04   0.188E+00 -.285E-01 0.142E+01   0.892E-04 0.779E-03 0.431E-02
   0.248E+01 -.212E+01 -.201E+04   -.217E+01 0.191E+01 0.200E+04   -.317E+00 0.207E+00 0.156E+01   0.303E-02 -.284E-03 0.112E-02
   0.125E+02 -.435E+01 -.202E+04   -.128E+02 0.428E+01 0.202E+04   0.300E+00 0.659E-01 0.116E+01   0.623E-03 -.231E-02 0.184E-02
   -.114E+02 0.667E+01 0.195E+04   0.117E+02 -.681E+01 -.195E+04   -.257E+00 0.127E+00 -.147E+01   0.155E-02 -.600E-03 -.161E-02
   -.121E+02 0.238E+00 -.199E+04   0.125E+02 -.669E-01 0.199E+04   -.480E+00 -.178E+00 0.167E+01   0.499E-03 0.262E-02 -.514E-03
   -.296E+01 -.118E+00 -.200E+04   0.301E+01 -.105E+00 0.199E+04   -.582E-01 0.220E+00 0.143E+01   0.323E-02 0.348E-02 0.144E-02
   -.393E-01 0.126E+00 -.125E+01   -.385E-12 0.663E-12 -.318E-11   0.251E-01 -.110E+00 0.119E+01   0.446E-03 0.114E-02 0.672E-02

 POSITION                                       TOTAL-FORCE (eV/Angst)
      8.24786      4.74144     14.75038         0.006480      0.003772      0.001482
      6.88667      8.72513     12.27835         0.002872     -0.004652      0.002945
      9.61919      0.79237      9.69442         0.000605      0.003456     -0.012490
      5.52120      1.62006     12.25785        -0.005863     -0.001540      0.013037
      5.51283      0.00104     14.76267        -0.002470      0.006740      0.013296
     11.00217      3.16103      9.63467        -0.006589     -0.004906      0.002952
      4.12692      2.39562     14.84520         0.003728     -0.008280      0.012077
      8.25844      6.34500     12.26822         0.005304      0.002623     -0.004727
      9.63713      7.14119     14.74957         0.005220     -0.000133      0.007877
     12.38743      5.55140      9.68839        -0.009158      0.004659     -0.008174
      2.77065      1.59806     12.28940         0.005758     -0.000580     -0.002616
     12.36723      8.73753     12.24542         0.012100      0.000584     -0.009246
      4.09361      0.80488      9.72355        -0.003951     -0.007592      0.009629
     15.13214      8.73514     12.25851        -0.011313     -0.001548     -0.006232
      5.52108      7.92526      9.70449        -0.008319     -0.000715      0.001444
      2.74758      4.77882     14.81738         0.003253      0.015376     -0.004741
     13.76123      6.33838     12.25964         0.000576      0.006913      0.001094
      4.14321      5.53165      9.75398         0.006705      0.003407     -0.000419
     10.98683      7.94158      9.74474        -0.006235     -0.005953     -0.010192
     12.36328      3.98546     12.25548        -0.002618      0.002122     -0.001458
      9.59805      5.54549      9.76033        -0.000425     -0.000270     -0.017769
     -0.00096     -0.00053     14.85336         0.006357      0.004142     -0.011780
     10.97914      1.60944     12.25380        -0.011822      0.006153     -0.001313
      6.87515      0.80941      9.68198         0.001033     -0.000821      0.001077
      9.63759      8.73455     12.25988        -0.003931      0.001139      0.000676
      1.36904      0.78840      9.87204        -0.002409      0.002457     -0.002585
      8.25953      0.01150     14.62662        -0.001811      0.003480     -0.005335
      9.62427      2.37459     14.61206         0.005099     -0.000632     -0.003693
     10.99409      6.35191     12.22246         0.002025     -0.000627      0.004482
     11.00513      4.75091     14.60655        -0.000786     -0.000607      0.001638
     13.75618      7.93452      9.83637        -0.000287     -0.000001     -0.015311
      8.24834      1.60542     12.21448         0.008572     -0.008259      0.001173
      9.60404      3.97428     12.24081         0.010092     -0.009638     -0.003693
      6.86211      7.14474     14.65381        -0.003202     -0.000588      0.013202
      6.88785      3.98309     12.27469         0.002695     -0.000422     -0.005437
      8.22994      3.17827      9.89485         0.002006      0.006509     -0.004341
      8.23908      7.93760      9.87691         0.006896     -0.000056      0.001773
      5.50420      4.77786     14.61538        -0.001404      0.010712      0.014252
      5.50330      6.33606     12.22971        -0.004484     -0.001752      0.010968
      6.87634      5.53319      9.89569        -0.003389     -0.006700     -0.000939
      4.15290      3.98821     12.29322         0.002479     -0.001438     -0.000120
      5.50584      3.18145      9.91285        -0.000394      0.001771     -0.004519
      2.74440      0.00021     14.67566        -0.000676      0.008203      0.004977
      4.14096      7.14506     14.63976        -0.000357     -0.009477      0.004153
      1.36155      2.38319     14.67775        -0.002591     -0.004281      0.003771
      2.75491      3.17042      9.89346        -0.004889     -0.007638     -0.002064
      6.89556      2.38184     14.61681        -0.001148     -0.004828      0.013661
     12.38999      7.14523     14.62926         0.000668     -0.000284     -0.002444
    total drift:                               -0.013808      0.017030     -0.054715

  FREE ENERGIE OF THE ION-ELECTRON SYSTEM (eV)
  free  energy   TOTEN  =      -192.13248451 eV

  energy  without entropy=     -191.91264509  energy(sigma->0) =     -192.02256480

 d Force = 0.7922836E-03[ 0.380E-03, 0.120E-02]  d Energy = 0.7817736E-03 0.105E-04
 d Force =-0.1027382E+02[-0.102E+02,-0.104E+02]  d Ewald  =-0.1027382E+02 0.273E-05

 stress matrix after NEB project (eV)
      0.00000      0.00000      0.00000
      0.00000      0.00000      0.00000
      0.00000      0.00000      0.00000
  FORCES: max atom, RMS     0.017884    0.010639
  FORCE total and by dimension    0.073706    0.017769
  Stress total and by dimension    0.000000    0.000000
 Conjugate gradient step on ions:
 trial-energy change:   -0.000782  1 .order   -0.000792   -0.001204   -0.000380
  (g-gl).g = 0.411E-03      g.g   = 0.387E-03  gl.gl    = 0.584E-03
 g(Force)  = 0.387E-03   g(Stress)= 0.000E+00 ortho     = 0.691E-04
 gamma     =   0.70449
 trial     =   2.76429
 opt step  =   4.20791  (harmonic =   4.03975) maximal distance =0.00891309
 next E    =  -192.132582   (d E  =  -0.00088)

 reached required accuracy - stopping structural energy minimisation