 vasp.5.4.1 24Jun15 (build Mar 14 2019 10:18:33) complex

 executed on INTEL-19.0.2+OPENMPI date 2022.07.16  14:59:53

 INCAR:
 POTCAR:    PAW_PBE Au 04Oct2007
 POTCAR:    PAW_PBE Pd 04Jan2005
 POTCAR:    PAW_PBE Au 04Oct2007

 POTCAR:    PAW_PBE Pd 04Jan2005

 Optimization of the real space projectors (new method)

 maximal supplied QI-value         = 15.12
 optimisation between [QCUT,QGAM] = [ 10.13, 20.41] = [ 28.73,116.64] Ry
 Optimized for a Real-space Cutoff    1.51 Angstroem

   l    n(q)    QCUT    max X(q) W(low)/X(q) W(high)/X(q)  e(spline)
   2      8    10.129    60.898    0.46E-03    0.46E-03    0.14E-06
   2      8    10.129    58.894    0.47E-03    0.47E-03    0.14E-06
   0      9    10.129   109.617    0.16E-03    0.11E-03    0.54E-07
   0      9    10.129    75.026    0.15E-03    0.11E-03    0.52E-07
   1      9    10.129    16.344    0.96E-04    0.15E-03    0.14E-06
   1      9    10.129    10.160    0.81E-04    0.12E-03    0.11E-06
 Optimization of the real space projectors (new method)

 maximal supplied QI-value         = 14.36
 optimisation between [QCUT,QGAM] = [ 10.20, 20.39] = [ 29.12,116.47] Ry
 Optimized for a Real-space Cutoff    1.51 Angstroem

   l    n(q)    QCUT    max X(q) W(low)/X(q) W(high)/X(q)  e(spline)
   2      8    10.197    59.108    0.26E-03    0.14E-03    0.96E-07
   2      8    10.197    58.101    0.27E-03    0.14E-03    0.98E-07
   0      9    10.197   102.235    0.54E-04    0.60E-05    0.72E-07
   0      9    10.197    58.388    0.52E-04    0.60E-05    0.68E-07
   1      9    10.197    22.191    0.18E-03    0.25E-03    0.79E-07
   1      9    10.197    15.590    0.15E-03    0.21E-03    0.69E-07
  PAW_PBE Au 04Oct2007                  :
  PAW_PBE Pd 04Jan2005                  :

 POSCAR: Au Pd
  positions in direct lattice
  velocities in cartesian coordinates
 exchange correlation table for  LEXCH =        8
   RHO(1)=    0.500       N(1)  =     2000
   RHO(2)=  100.500       N(2)  =     4000

 VTST: version 3.2, (02/03/18)

 CHAIN: initializing optimizer

 OPT: Using VASP Conjugate-Gradient optimizer
 CHAIN: Read ICHAIN            0

 POSCAR: Au Pd
  positions in direct lattice
  velocities in cartesian coordinates

 ion  position               nearest neighbor table
   1  0.747  0.752  0.602-  36 2.73  28 2.75   5 2.76  17 2.78  22 2.79  14 2.79  21 2.95  38 2.97
                            42 2.98
   2  0.502  0.249  0.600-   5 2.72  36 2.76  31 2.76   7 2.77  10 2.77  13 2.78  25 2.91  37 2.92
                            35 2.93
   3  0.586  0.333  0.399-  27 2.74  26 2.74  34 2.74   9 2.74   4 2.76  41 2.78  25 2.92  32 2.92
                            35 2.95
   4  0.584  0.083  0.399-  16 2.75  41 2.75   3 2.76  18 2.76  29 2.76  27 2.77  25 2.92  38 2.92
                            37 2.93
   5  0.749  0.001  0.603-   2 2.72  31 2.74  14 2.76   1 2.76  46 2.76  36 2.77  24 2.96  38 2.97
                            25 2.98
   6  0.335  0.833  0.398-  29 2.74  18 2.75  23 2.76   9 2.77  34 2.77  33 2.78  30 2.92  39 2.93
                            47 2.93
   7  0.251  0.500  0.602-  13 2.75  48 2.76  14 2.76   2 2.77  22 2.77  10 2.78  40 2.96  35 2.97
                             8 2.97
   8  0.168  0.666  0.500-  47 2.74  40 2.74  35 2.75  39 2.76  42 2.76  24 2.78  48 2.84  20 2.96
                             7 2.97   9 2.98  14 3.02  23 3.04
   9  0.336  0.581  0.397-   3 2.74  34 2.75  41 2.75   6 2.77  20 2.77  23 2.79  47 2.95  35 2.97
                             8 2.98
  10  0.251  0.247  0.603-  36 2.74  11 2.76  22 2.76  43 2.76   2 2.77   7 2.78  12 2.96  37 2.98
                            40 2.98
  11  0.251  0.996  0.601-  48 2.71  28 2.72  46 2.74  36 2.75  10 2.76  43 2.77  39 2.95  30 2.96
                            12 2.98
  12  0.167  0.168  0.500-  40 2.74  30 2.74  37 2.75  44 2.76  39 2.77  15 2.78  45 2.83  43 2.87
                            33 2.88  10 2.96  18 2.96  11 2.98
  13  0.500  0.502  0.601-  28 2.74  17 2.74  48 2.75   7 2.75   2 2.78  31 2.78  32 2.91  35 2.94
                            47 2.94
  14  0.001  0.752  0.605-  46 2.74  48 2.75   5 2.76   7 2.76   1 2.79  22 2.79  24 3.01   8 3.02
                            42 3.03
  15  0.914  0.169  0.500-  32 2.75  44 2.75  24 2.76  25 2.76  12 2.78  39 2.79  26 2.82  31 2.83
                            43 2.85  27 2.85  33 2.86  46 2.87
  16  0.833  0.833  0.398-   4 2.75  29 2.75  27 2.77  23 2.77  19 2.78  20 2.78  42 2.95  24 2.95
                            38 2.96
  17  0.751  0.497  0.602-  31 2.73  13 2.74  43 2.75  22 2.75   1 2.78  28 2.79  44 2.95  32 2.96
                            21 2.98
  18  0.332  0.084  0.398-  45 2.74  41 2.75   6 2.75  33 2.76   4 2.76  29 2.78  30 2.94  12 2.96
                            37 2.97
  19  0.833  0.580  0.399-  34 2.72  26 2.73  45 2.74  29 2.76  20 2.77  16 2.78  44 2.93  42 2.96
                            21 2.96
  20  0.085  0.580  0.398-  45 2.73  41 2.73  19 2.77   9 2.77  16 2.78  23 2.81  40 2.95   8 2.96
                            42 2.97
  21  0.665  0.668  0.500-  44 2.75  47 2.75  30 2.75  42 2.75  38 2.76  32 2.76  28 2.83  29 2.84
                            34 2.85   1 2.95  19 2.96  17 2.98
  22  1.000  0.498  0.600-  17 2.75  10 2.76  43 2.76   7 2.77   1 2.79  14 2.79  44 2.91  40 2.92
                            42 2.94
  23  0.083  0.836  0.395-  27 2.74  33 2.74   6 2.76  16 2.77   9 2.79  20 2.81  39 3.01   8 3.04
                            24 3.04
  24  0.915  0.918  0.500-  38 2.75  42 2.75  25 2.76  15 2.76   8 2.78  39 2.78  46 2.86  27 2.87
                            16 2.95   5 2.96  14 3.01  23 3.04
  25  0.664  0.168  0.500-  37 2.72  35 2.72  38 2.74  32 2.75  24 2.76  15 2.76  31 2.86  27 2.89
                             2 2.91   3 2.92   4 2.92   5 2.98
  26  0.836  0.331  0.403-  33 2.70  19 2.73  27 2.73  45 2.74   3 2.74  34 2.76  15 2.82  44 2.86
                            32 2.89
  27  0.835  0.084  0.402-  33 2.72  26 2.73  23 2.74   3 2.74   4 2.77  16 2.77  15 2.85  24 2.87
                            25 2.89
  28  0.499  0.751  0.596-  11 2.72  13 2.74  48 2.74  36 2.74   1 2.75  17 2.79  21 2.83  47 2.85
                            30 2.86
  29  0.584  0.832  0.404-   6 2.74  34 2.75  16 2.75  19 2.76   4 2.76  18 2.78  30 2.83  21 2.84
                            38 2.85
  30  0.415  0.918  0.499-  39 2.72  12 2.74  38 2.75  21 2.75  37 2.75  47 2.76  29 2.83  36 2.84
                            28 2.86   6 2.92  18 2.94  11 2.96
  31  0.752  0.249  0.596-  43 2.71  46 2.73  17 2.73   5 2.74   2 2.76  13 2.78  15 2.83  32 2.86
                            25 2.86
  32  0.664  0.418  0.500-  35 2.72  47 2.74  15 2.75  25 2.75  21 2.76  44 2.77  34 2.83  31 2.86
                            26 2.89  13 2.91   3 2.92  17 2.96
  33  0.081  0.085  0.402-  26 2.70  27 2.72  45 2.73  23 2.74  18 2.76   6 2.78  39 2.86  15 2.86
                            12 2.88
  34  0.586  0.582  0.404-  19 2.72   3 2.74  29 2.75   9 2.75  26 2.76   6 2.77  32 2.83  47 2.84
                            21 2.85
  35  0.417  0.416  0.500-  25 2.72  32 2.72  37 2.74   8 2.75  47 2.75  40 2.75  41 2.83   2 2.93
                            13 2.94   3 2.95   7 2.97   9 2.97
  36  0.499  0.999  0.596-   1 2.73  10 2.74  28 2.74  11 2.75   2 2.76   5 2.77  38 2.82  37 2.84
                            30 2.84
  37  0.417  0.167  0.500-  25 2.72  38 2.72  35 2.74  12 2.75  30 2.75  40 2.76  41 2.82  36 2.84
                             2 2.92   4 2.93  18 2.97  10 2.98
  38  0.664  0.919  0.500-  37 2.72  25 2.74  30 2.75  24 2.75  21 2.76  42 2.77  36 2.82  29 2.85
                             4 2.92  16 2.96   1 2.97   5 2.97
  39  0.168  0.916  0.499-  30 2.72  47 2.73   8 2.76  12 2.77  24 2.78  15 2.79  48 2.85  33 2.86
                            46 2.88   6 2.93  11 2.95  23 3.01
  40  0.166  0.418  0.501-   8 2.74  12 2.74  42 2.75  35 2.75  44 2.76  37 2.76  41 2.84  45 2.86
                            22 2.92  20 2.95   7 2.96  10 2.98
  41  0.334  0.333  0.404-  20 2.73  18 2.75   4 2.75  45 2.75   9 2.75   3 2.78  37 2.82  35 2.83
                            40 2.84
  42  0.916  0.667  0.500-  44 2.73  40 2.75  21 2.75  24 2.75   8 2.76  38 2.77  22 2.94  16 2.95
                            19 2.96  20 2.97   1 2.98  14 3.03
  43  0.999  0.248  0.597-  31 2.71  46 2.71  17 2.75  22 2.76  10 2.76  11 2.77  15 2.85  12 2.87
                            44 2.88
  44  0.915  0.419  0.500-  42 2.73  21 2.75  15 2.75  40 2.76  12 2.76  32 2.77  26 2.86  45 2.86
                            43 2.88  22 2.91  19 2.93  17 2.95
  45  0.084  0.333  0.404-  20 2.73  33 2.73  18 2.74  26 2.74  19 2.74  41 2.75  12 2.83  44 2.86
                            40 2.86
  46  0.000  0.001  0.597-  43 2.71  31 2.73  11 2.74  14 2.74  48 2.75   5 2.76  24 2.86  15 2.87
                            39 2.88
  47  0.416  0.667  0.499-  39 2.73  32 2.74   8 2.74  21 2.75  35 2.75  30 2.76  34 2.84  48 2.85
                            28 2.85   6 2.93  13 2.94   9 2.95
  48  0.250  0.751  0.596-  11 2.71  28 2.74  14 2.75  46 2.75  13 2.75   7 2.76   8 2.84  39 2.85
                            47 2.85

  LATTYP: Found a hexagonal cell.
 ALAT       =    11.0025815153
 C/A-ratio  =     2.2260035120

  Lattice vectors:

 A1 = (   5.5012907576,  -9.5285150994,   0.0000000000)
 A2 = ( -11.0025815153,   0.0000000000,   0.0000000000)
 A3 = (   0.0000000000,   0.0000000000, -24.4917850943)

Analysis of symmetry for initial positions (statically):
 Subroutine PRICEL returns:
 Original cell was already a primitive cell.

 Routine SETGRP: Setting up the symmetry group for a
 hexagonal supercell.

 Subroutine GETGRP returns: Found  1 space group operations
 (whereof  1 operations were pure point group operations)
 out of a pool of 24 trial point group operations.

The static configuration has the point symmetry C_1 .

Analysis of symmetry for dynamics (positions and initial velocities):
 Subroutine PRICEL returns:
 Original cell was already a primitive cell.

 Routine SETGRP: Setting up the symmetry group for a
 hexagonal supercell.

 Subroutine GETGRP returns: Found  1 space group operations
 (whereof  1 operations were pure point group operations)
 out of a pool of 24 trial point group operations.

The dynamic configuration has the point symmetry C_1 .

 KPOINTS: Automatic mesh

Automatic generation of k-mesh.
Space group operators:
 irot       det(A)        alpha          n_x          n_y          n_z        tau_x        tau_y        tau_z
    1     1.000000     0.000000     1.000000     0.000000     0.000000     0.000000     0.000000     0.000000

 Subroutine IBZKPT returns following result:

 Found      6 irreducible k-points:

 Following reciprocal coordinates:
            Coordinates               Weight
  0.250000  0.250000  0.000000     16.000000
  0.000000  0.250000  0.000000     16.000000
 -0.250000  0.000000  0.000000     16.000000
 -0.250000  0.250000  0.000000     16.000000
  0.500000 -0.250000  0.000000     16.000000
 -0.250000  0.500000  0.000000     16.000000

 Following cartesian coordinates:
            Coordinates               Weight
  0.022722  0.013119  0.000000     16.000000
[...]
 dipolmoment           0.000000      0.000000     -0.006270 electrons x Angstroem
 Tr[quadrupol]    -10276.875170

 energy correction for charged system         0.000000 eV
 dipol+quadrupol energy correction           -0.000001 eV
 added-field ion interaction          0.001084 eV  (added to PSCEN)

  free energy =  -0.193267728164E+03  energy without entropy=  -0.193024344023E+03

 average (electrostatic) potential at core
  the test charge radii are     1.2098  1.1199
  (the norm of the test charge is              1.0000)
       1 -73.9766       2 -73.9795       3 -73.8558       4 -73.9293       5 -73.9741
       6 -73.9066       7 -74.0847       8 -74.1294       9 -73.9596      10 -73.9646
      11 -73.8860      12 -74.1210      13 -73.9528      14 -73.9847      15 -74.1267
      16 -74.0127      17 -73.9624      18 -73.9013      19 -73.9499      20 -74.0045
      21 -74.1057      22 -74.0522      23 -73.9015      24 -74.1823      25 -80.9337
      26 -80.7938      27 -80.7999      28 -80.7860      29 -80.8200      30 -80.9427
      31 -80.8143      32 -80.9627      33 -80.7933      34 -80.8174      35 -80.9266
      36 -80.8050      37 -80.9385      38 -80.9456      39 -80.9182      40 -80.9286
      41 -80.8244      42 -80.8711      43 -80.7907      44 -80.9402      45 -80.7933
      46 -80.8086      47 -80.9606      48 -80.8363

 E-fermi :  -1.0899     XC(G=0):  -4.5420     alpha+bet : -4.5211

[...]

 k-point     6 :      -0.2500    0.5000    0.0000
  band No.  band energies     occupation
      1      -8.3866      2.00000
      2      -7.9738      2.00000
      3      -7.7281      2.00000
      4      -7.6089      2.00000
      5      -7.1725      2.00000
      6      -7.0604      2.00000
      7      -7.0027      2.00000
      8      -6.8962      2.00000
      9      -6.8249      2.00000
     10      -6.7670      2.00000
     11      -6.7488      2.00000
     12      -6.6677      2.00000
     13      -6.6358      2.00000
     14      -6.5921      2.00000
     15      -6.5346      2.00000
     16      -6.4768      2.00000
     17      -6.4424      2.00000
     18      -6.4148      2.00000
     19      -6.3857      2.00000
     20      -6.3546      2.00000
     21      -6.3299      2.00000
     22      -6.3151      2.00000
     23      -6.2825      2.00000
     24      -6.2251      2.00000
     25      -6.2165      2.00000
     26      -6.1916      2.00000
     27      -6.1865      2.00000
     28      -6.1332      2.00000
     29      -6.1229      2.00000
     30      -6.0931      2.00000
     31      -6.0571      2.00000
     32      -6.0528      2.00000
     33      -6.0352      2.00000
     34      -6.0049      2.00000
     35      -5.9874      2.00000
     36      -5.9717      2.00000
     37      -5.9452      2.00000
     38      -5.9093      2.00000
     39      -5.8902      2.00000
     40      -5.8541      2.00000
     41      -5.8310      2.00000
     42      -5.8231      2.00000
     43      -5.8034      2.00000
     44      -5.7967      2.00000
     45      -5.7712      2.00000
     46      -5.7361      2.00000
     47      -5.6939      2.00000
     48      -5.6826      2.00000
     49      -5.6259      2.00000
     50      -5.6021      2.00000
     51      -5.5790      2.00000
     52      -5.5226      2.00000
     53      -5.5112      2.00000
     54      -5.4733      2.00000
     55      -5.4493      2.00000
     56      -5.4265      2.00000
     57      -5.4063      2.00000
     58      -5.3737      2.00000
     59      -5.3474      2.00000
     60      -5.3320      2.00000
[...]
    292       4.2099      0.00000
    293       4.5128      0.00000
    294       4.5468      0.00000
    295       4.6094      0.00000
    296       4.6321      0.00000
    297       4.7063      0.00000
    298       4.7807      0.00000
    299       4.8544      0.00000
    300       4.9374      0.00000
    301       4.9677      0.00000
    302       5.0338      0.00000
    303       5.0684      0.00000
    304       5.0787      0.00000
    305       5.1707      0.00000
    306       5.2515      0.00000

 soft charge-density along one line, spin component           1
         0         1         2         3         4         5         6         7         8         9
 total charge-density along one line

------------------------ aborting loop because EDIFF is reached ----------------------------------------

 VOLUME and BASIS-vectors are now :
  energy-cutoff  :      400.00
  volume of cell :     2567.68
      direct lattice vectors                 reciprocal lattice vectors
    11.002581515  0.000000000  0.000000000     0.090887761 -0.052474073  0.000000000
     5.501290758  9.528515099  0.000000000     0.000000000  0.104948147  0.000000000
     0.000000000  0.000000000 24.491785094     0.000000000  0.000000000  0.040830017

  length of vectors
    11.002581515 11.002581515 24.491785094     0.104948147  0.104948147  0.040830017

 FORCES acting on ions
    electron-ion (+dipol)            ewald-force                    non-local-force                 convergence-correction
   0.102E+02 -.642E+01 -.224E+04   -.109E+02 0.706E+01 0.224E+04   0.669E+00 -.641E+00 0.289E+00   -.413E-02 0.484E-02 0.396E-02
   -.409E+01 0.261E+01 -.221E+04   0.439E+01 -.326E+01 0.221E+04   -.291E+00 0.650E+00 0.629E+00   -.132E-01 -.363E-02 0.283E-01
   -.566E+01 0.211E+01 0.223E+04   0.614E+01 -.206E+01 -.223E+04   -.474E+00 -.530E-01 -.517E+00   0.225E-02 0.146E-02 -.256E-01
   0.255E+01 -.383E+01 0.223E+04   -.247E+01 0.384E+01 -.223E+04   -.766E-01 -.106E-01 -.615E+00   0.713E-03 0.230E-02 -.222E-01
   -.290E+01 -.742E+01 -.225E+04   0.282E+01 0.801E+01 0.225E+04   0.880E-01 -.565E+00 0.186E+00   -.252E-02 -.220E-01 0.108E-01
   -.121E+02 -.458E+00 0.224E+04   0.126E+02 0.491E+00 -.224E+04   -.465E+00 -.348E-01 -.566E+00   -.912E-02 0.666E-02 0.543E-02
   -.801E+01 -.438E+01 -.223E+04   0.815E+01 0.457E+01 0.223E+04   -.146E+00 -.213E+00 0.176E+00   -.252E-02 0.212E-01 0.148E-01
   0.837E+01 0.371E+00 0.261E+02   -.791E+01 -.667E+00 -.255E+02   -.471E+00 0.268E+00 -.628E+00   0.524E-02 0.313E-01 0.414E-02
   -.417E+01 0.128E+02 0.226E+04   0.469E+01 -.134E+02 -.226E+04   -.512E+00 0.571E+00 -.293E+00   -.550E-02 0.887E-02 -.102E-01
   0.213E+01 0.107E+02 -.225E+04   -.223E+01 -.110E+02 0.225E+04   0.905E-01 0.319E+00 0.234E+00   -.307E-03 -.920E-02 0.161E-01
   0.495E+01 0.969E+01 -.224E+04   -.509E+01 -.104E+02 0.224E+04   0.140E+00 0.757E+00 0.329E+00   -.187E-02 -.231E-01 -.747E-02
   -.113E+02 0.319E+01 -.380E+00   0.115E+02 -.279E+01 -.232E+00   -.144E+00 -.367E+00 0.622E+00   -.485E-02 -.261E-01 -.930E-02
   -.309E+01 -.717E+01 -.222E+04   0.329E+01 0.752E+01 0.222E+04   -.187E+00 -.379E+00 0.588E+00   -.632E-02 0.285E-01 0.136E-01
   -.106E+02 -.663E+01 -.226E+04   0.112E+02 0.704E+01 0.226E+04   -.594E+00 -.417E+00 -.439E-01   0.924E-02 0.548E-02 0.121E-02
   -.970E-01 0.120E+01 0.113E+02   -.219E+00 -.744E+00 -.113E+02   0.300E+00 -.435E+00 -.497E-02   0.170E-01 -.221E-01 -.133E-01
   0.100E+02 0.376E+00 0.223E+04   -.105E+02 0.787E-01 -.223E+04   0.468E+00 -.449E+00 -.364E+00   0.133E-01 -.895E-03 -.606E-02
   0.799E+01 0.383E+01 -.225E+04   -.813E+01 -.460E+01 0.225E+04   0.138E+00 0.751E+00 0.244E+00   -.541E-03 0.267E-01 0.966E-02
   -.138E+01 -.102E+02 0.226E+04   0.131E+01 0.105E+02 -.226E+04   0.734E-01 -.308E+00 -.387E+00   -.868E-02 0.556E-02 -.645E-02
   0.707E+01 0.808E+01 0.224E+04   -.766E+01 -.872E+01 -.224E+04   0.589E+00 0.651E+00 -.421E+00   0.118E-01 -.807E-02 -.616E-02
   0.752E+01 0.142E+02 0.223E+04   -.752E+01 -.153E+02 -.223E+04   -.668E-02 0.109E+01 -.314E+00   0.415E-02 0.139E-03 -.996E-02
   -.116E+02 0.414E+01 -.647E+01   0.112E+02 -.383E+01 0.590E+01   0.439E+00 -.335E+00 0.564E+00   -.176E-02 0.943E-02 0.954E-02
   0.384E+01 0.359E+01 -.221E+04   -.403E+01 -.417E+01 0.221E+04   0.179E+00 0.568E+00 0.636E+00   0.607E-02 0.141E-01 0.122E-01
   0.265E+01 -.817E+01 0.230E+04   -.250E+01 0.927E+01 -.230E+04   -.150E+00 -.110E+01 0.164E+00   0.429E-02 -.160E-02 -.208E-02
   0.620E+01 0.168E+02 0.685E+01   -.646E+01 -.165E+02 -.689E+01   0.238E+00 -.274E+00 0.346E-01   0.176E-01 -.222E-01 -.283E-02
   0.882E+01 0.523E+00 0.647E+01   -.901E+01 -.239E+00 -.643E+01   0.183E+00 -.268E+00 -.317E-01   0.699E-02 -.156E-01 -.689E-02
   -.346E+01 -.430E+01 0.199E+04   0.358E+01 0.418E+01 -.199E+04   -.124E+00 0.117E+00 -.177E+01   0.881E-02 -.405E-02 -.103E-01
   -.123E+01 -.118E+02 0.199E+04   0.165E+01 0.122E+02 -.199E+04   -.427E+00 -.309E+00 -.143E+01   0.107E-01 -.709E-02 -.920E-02
   0.934E+01 -.837E+01 -.196E+04   -.960E+01 0.877E+01 0.196E+04   0.262E+00 -.409E+00 0.158E+01   -.123E-01 0.991E-02 -.100E-01
   -.207E+00 0.295E+01 0.197E+04   0.105E+00 -.303E+01 -.197E+04   0.106E+00 0.742E-01 -.162E+01   -.360E-02 0.578E-03 0.822E-02
   0.242E+01 -.456E+01 0.263E+02   -.207E+01 0.431E+01 -.259E+02   -.333E+00 0.257E+00 -.391E+00   -.173E-01 -.893E-02 0.298E-02
   -.198E+01 0.213E+01 -.197E+04   0.236E+01 -.226E+01 0.197E+04   -.374E+00 0.136E+00 0.172E+01   -.199E-02 -.630E-02 0.821E-02
   0.383E+01 -.344E+01 -.236E+01   -.400E+01 0.333E+01 0.199E+01   0.149E+00 0.933E-01 0.381E+00   0.619E-02 0.185E-01 -.823E-02
   -.334E+00 -.145E+02 0.200E+04   -.974E-01 0.147E+02 -.200E+04   0.429E+00 -.161E+00 -.157E+01   0.181E-02 -.466E-02 0.113E-02
   -.845E+01 0.497E+01 0.198E+04   0.848E+01 -.510E+01 -.198E+04   -.190E-01 0.131E+00 -.179E+01   -.444E-02 -.148E-02 -.104E-02
   0.174E+01 -.211E+01 -.838E-02   -.182E+01 0.173E+01 -.430E+00   0.734E-01 0.352E+00 0.447E+00   -.362E-02 0.220E-01 -.522E-02
   0.801E+01 0.628E+01 -.194E+04   -.804E+01 -.646E+01 0.194E+04   0.360E-01 0.201E+00 0.182E+01   -.126E-01 -.133E-01 0.448E-02
   0.144E+01 -.204E+01 0.239E+01   -.107E+01 0.208E+01 -.243E+01   -.354E+00 -.198E-01 0.441E-01   -.170E-01 -.204E-01 0.246E-03
   -.817E+01 0.288E+01 0.483E+00   0.762E+01 -.258E+01 -.498E+00   0.551E+00 -.281E+00 0.120E-01   -.837E-02 -.163E-01 0.795E-02
   -.170E+00 0.599E+01 0.371E+02   0.502E+00 -.628E+01 -.367E+02   -.338E+00 0.294E+00 -.438E+00   0.775E-02 -.140E-01 0.409E-02
   -.225E+01 -.499E+01 -.197E+02   0.225E+01 0.484E+01 0.188E+02   0.139E-01 0.136E+00 0.942E+00   -.577E-02 0.145E-01 -.382E-02
   0.512E+01 0.288E+01 0.194E+04   -.544E+01 -.288E+01 -.194E+04   0.333E+00 0.925E-03 -.188E+01   -.603E-02 0.459E-02 -.225E-01
   -.275E+01 -.144E+01 -.879E+01   0.265E+01 0.117E+01 0.879E+01   0.982E-01 0.265E+00 -.754E-02   0.652E-02 0.113E-01 -.469E-03
   0.523E+01 0.907E+01 -.199E+04   -.577E+01 -.904E+01 0.199E+04   0.534E+00 -.221E-01 0.146E+01   0.766E-02 -.140E-01 -.958E-03
   -.466E+01 -.120E+02 -.111E+02   0.482E+01 0.118E+02 0.108E+02   -.168E+00 0.178E+00 0.372E+00   0.207E-02 0.915E-02 -.719E-02
   0.453E+01 0.133E+01 0.198E+04   -.454E+01 -.128E+01 -.197E+04   0.955E-02 -.516E-01 -.168E+01   0.306E-02 -.282E-02 -.903E-02
   -.116E+02 -.105E+01 -.198E+04   0.118E+02 0.121E+01 0.198E+04   -.192E+00 -.133E+00 0.138E+01   0.113E-01 -.287E-01 -.793E-02
   0.553E+01 0.207E+01 0.259E+02   -.539E+01 -.196E+01 -.254E+02   -.130E+00 -.141E+00 -.432E+00   -.638E-02 0.308E-01 0.250E-03
   -.904E+01 -.963E+01 -.195E+04   0.938E+01 0.100E+02 0.195E+04   -.350E+00 -.379E+00 0.175E+01   -.411E-02 0.869E-02 -.141E-01
   0.138E+00 -.134E+00 0.685E+00   -.114E-12 0.165E-12 -.227E-12   -.134E+00 0.106E+00 -.584E+00   -.358E-03 0.192E-03 -.712E-01

 POSITION                                       TOTAL-FORCE (eV/Angst)
     12.35164      7.16401     14.75271        -0.004098     -0.001039      0.008922
      6.88516      2.36806     14.70039        -0.003256      0.001188      0.011429
      8.28454      3.17075      9.78986         0.006704     -0.000652     -0.008223
      6.88212      0.79341      9.78721         0.001075      0.002533     -0.011452
      8.24877      0.01194     14.75013        -0.001874      0.000283      0.005399
      8.27323      7.93962      9.75129         0.005251      0.004582     -0.013131
      5.50906      4.76823     14.74726        -0.007211     -0.001429      0.006236
      5.50866      6.34676     12.22777        -0.001679      0.004346      0.003167
      6.90024      5.53667      9.72581         0.002824      0.004322     -0.005101
      4.11517      2.35612     14.76300        -0.004163      0.001316      0.009265
      8.23782      9.49460     14.70985        -0.002979      0.001419      0.006811
      2.76088      1.60183     12.24362         0.003435      0.001378     -0.000371
      8.25922      4.78002     14.69885         0.000907     -0.003632      0.009729
      4.14245      7.16371     14.79175        -0.007955      0.003434      0.009410
     10.99077      1.61264     12.23721         0.000107     -0.000855      0.000949
     13.74879      7.93762      9.76427         0.001368      0.005533     -0.011370
     10.99169      4.74155     14.75318        -0.000367      0.003449      0.007754
      4.12432      0.80513      9.74856         0.000857      0.003302     -0.007834
     12.36431      5.52633      9.78156         0.003509     -0.001313     -0.004936
      4.12688      5.52291      9.76129         0.004506     -0.000153     -0.007646
     10.99256      6.36772     12.25176         0.006902     -0.006933      0.004636
     13.74168      4.75088     14.72143        -0.000015     -0.004468      0.011113
      5.51581      7.96495      9.65382         0.004183     -0.001712     -0.014235
     15.11659      8.74692     12.24267         0.000132     -0.004765     -0.004136
      8.22879      1.60547     12.24254        -0.001543      0.000546      0.003001
     11.02153      3.15713      9.87666         0.003314     -0.000934      0.003894
      9.64681      0.79793      9.85065         0.004924     -0.001305      0.003482
      9.61309      7.15313     14.59530        -0.006193     -0.001727     -0.008850
     11.00595      7.92852      9.87592        -0.000103     -0.003398      0.010669
      9.61801      8.74754     12.21612         0.001495      0.001562     -0.006674
      9.64357      2.36813     14.61169        -0.005000      0.000119     -0.006374
      9.60771      3.98235     12.25199        -0.006268      0.000763      0.000074
      1.36887      0.81499      9.84642         0.000144     -0.001663      0.003442
      9.64663      5.54345      9.88033         0.000892     -0.004144      0.006063
      6.88321      3.96652     12.24907        -0.003750     -0.003077      0.002326
     10.98682      9.52010     14.58810        -0.006471      0.002687      0.000236
      5.51080      1.59459     12.24506         0.001179      0.000725      0.006015
     12.36295      8.75730     12.24733        -0.001924      0.002541      0.004381
      6.89222      8.73110     12.20653         0.001959     -0.002961      0.000077
      4.12422      3.97780     12.26875         0.007802      0.005059      0.007625
      5.50290      3.17065      9.91790         0.004881      0.000851      0.002803
     13.74614      6.35452     12.25995         0.004748      0.003096     -0.004573
     12.35497      2.35947     14.63966        -0.002988     -0.005849     -0.007411
     12.37380      3.99003     12.26465        -0.000427      0.004297      0.004791
      2.75528      3.17002      9.88930         0.003512     -0.004409      0.007286
      0.00149      0.00637     14.61752         0.001576      0.000872     -0.010077
      8.24657      6.35833     12.22062        -0.001811     -0.000476     -0.012703
      6.87824      7.15657     14.58551        -0.008107     -0.003308     -0.015887
    total drift:                                0.003850     -0.028187      0.029134

  FREE ENERGIE OF THE ION-ELECTRON SYSTEM (eV)
  free  energy   TOTEN  =      -193.26772816 eV

  energy  without entropy=     -193.02434402  energy(sigma->0) =     -193.14603609

 d Force = 0.2347999E-03[ 0.197E-03, 0.273E-03]  d Energy = 0.2294997E-03 0.530E-05
 d Force = 0.7646532E+01[ 0.765E+01, 0.765E+01]  d Ewald  = 0.7646531E+01 0.770E-06

 stress matrix after NEB project (eV)
      0.00000      0.00000      0.00000
      0.00000      0.00000      0.00000
      0.00000      0.00000      0.00000
  FORCES: max atom, RMS     0.018140    0.009217
  FORCE total and by dimension    0.063858    0.015887
  Stress total and by dimension    0.000000    0.000000
 Conjugate gradient step on ions:
 trial-energy change:   -0.000229  1 .order   -0.000235   -0.000273   -0.000197
  (g-gl).g = 0.316E-04      g.g   = 0.228E-03  gl.gl    = 0.571E-03
 g(Force)  = 0.228E-03   g(Stress)= 0.000E+00 ortho     = 0.346E-04
 gamma     =   0.05533
 trial     =   1.18633
 opt step  =   4.27697  (harmonic =   4.27697) maximal distance =0.00206191
 next E    =  -193.267990   (d E  =  -0.00049)

 reached required accuracy - stopping structural energy minimisation