 vasp.5.4.1 24Jun15 (build Mar 14 2019 10:18:33) complex

 executed on INTEL-19.0.2+OPENMPI date 2022.06.20  18:30:35

 INCAR:
 POTCAR:    PAW_PBE Au 04Oct2007
 POTCAR:    PAW_PBE Pd 04Jan2005
 POTCAR:    PAW_PBE Au 04Oct2007

 POTCAR:    PAW_PBE Pd 04Jan2005

 Optimization of the real space projectors (new method)

 maximal supplied QI-value         = 15.12
 optimisation between [QCUT,QGAM] = [ 10.13, 20.41] = [ 28.73,116.64] Ry
 Optimized for a Real-space Cutoff    1.51 Angstroem

   l    n(q)    QCUT    max X(q) W(low)/X(q) W(high)/X(q)  e(spline)
   2      8    10.129    60.898    0.46E-03    0.46E-03    0.14E-06
   2      8    10.129    58.894    0.47E-03    0.47E-03    0.14E-06
   0      9    10.129   109.617    0.16E-03    0.11E-03    0.54E-07
   0      9    10.129    75.026    0.15E-03    0.11E-03    0.52E-07
   1      9    10.129    16.344    0.96E-04    0.15E-03    0.14E-06
   1      9    10.129    10.160    0.81E-04    0.12E-03    0.11E-06
 Optimization of the real space projectors (new method)

 maximal supplied QI-value         = 14.36
 optimisation between [QCUT,QGAM] = [ 10.20, 20.39] = [ 29.12,116.47] Ry
 Optimized for a Real-space Cutoff    1.51 Angstroem

   l    n(q)    QCUT    max X(q) W(low)/X(q) W(high)/X(q)  e(spline)
   2      8    10.197    59.108    0.26E-03    0.14E-03    0.96E-07
   2      8    10.197    58.101    0.27E-03    0.14E-03    0.98E-07
   0      9    10.197   102.235    0.54E-04    0.60E-05    0.72E-07
   0      9    10.197    58.388    0.52E-04    0.60E-05    0.68E-07
   1      9    10.197    22.191    0.18E-03    0.25E-03    0.79E-07
   1      9    10.197    15.590    0.15E-03    0.21E-03    0.69E-07
  PAW_PBE Au 04Oct2007                  :
  PAW_PBE Pd 04Jan2005                  :

 POSCAR: Au Pd
  positions in cartesian coordinates
 exchange correlation table for  LEXCH =        8
   RHO(1)=    0.500       N(1)  =     2000
   RHO(2)=  100.500       N(2)  =     4000

 VTST: version 3.2, (02/03/18)

 CHAIN: initializing optimizer

 OPT: Using VASP Conjugate-Gradient optimizer
 CHAIN: Read ICHAIN            0

 POSCAR: Au Pd
  positions in cartesian coordinates

 ion  position               nearest neighbor table
   1  0.250  0.750  0.592-   4 2.75  38 2.75  16 2.75  32 2.75   2 2.75  46 2.75  22 2.75  11 2.75
                             8 2.75
   2  0.250  0.500  0.592-   8 2.75  41 2.75  22 2.75  37 2.75  40 2.75   1 2.75  16 2.75  39 2.75
                            19 2.75
   3  0.333  0.833  0.408-  10 2.75   9 2.75  17 2.75  21 2.75  48 2.75  36 2.75  23 2.75  38 2.75
                             4 2.75
   4  0.167  0.917  0.500-  23 2.75   1 2.75  32 2.75  27 2.75   8 2.75  38 2.75  45 2.75  44 2.75
                            10 2.75  48 2.75  46 2.75   3 2.75
   5  0.667  0.917  0.500-  36 2.75  18 2.75  42 2.75  35 2.75  15 2.75  13 2.75  43 2.75  10 2.75
                            44 2.75   6 2.75  25 2.75  14 2.75
   6  0.583  0.083  0.408-  13 2.75   7 2.75  20 2.75  25 2.75  36 2.75  12 2.75  21 2.75   5 2.75
                            43 2.75
   7  0.583  0.333  0.408-  30 2.75   9 2.75  12 2.75  17 2.75   6 2.75  20 2.75  31 2.75  13 2.75
                            41 2.75
   8  0.167  0.667  0.500-  47 2.75   2 2.75  22 2.75   4 2.75  41 2.75  44 2.75  19 2.75  38 2.75
                            35 2.75  23 2.75   1 2.75  17 2.75
   9  0.583  0.583  0.408-  15 2.75   7 2.75   3 2.75  31 2.75  36 2.75  17 2.75  28 2.75  30 2.75
                            38 2.75
  10  0.417  0.917  0.500-   3 2.75  11 2.75  46 2.75  38 2.75  43 2.75  45 2.75  15 2.75   4 2.75
                             5 2.75  21 2.75  42 2.75  36 2.75
  11  0.500  0.750  0.592-  10 2.75  15 2.75  16 2.75  26 2.75  42 2.75  46 2.75  18 2.75   1 2.75
                            38 2.75
  12  0.833  0.083  0.408-  27 2.75  23 2.75  25 2.75   7 2.75  31 2.75   6 2.75  48 2.75  44 2.75
                            13 2.75
  13  0.667  0.167  0.500-   6 2.75  14 2.75  40 2.75  30 2.75   5 2.75  41 2.75  44 2.75  43 2.75
                            27 2.75   7 2.75  29 2.75  12 2.75
  14  0.750  0.000  0.592-  13 2.75  44 2.75  22 2.75  29 2.75  40 2.75  18 2.75  42 2.75  32 2.75
                             5 2.75
  15  0.667  0.667  0.500-   9 2.75  26 2.75  11 2.75   5 2.75  24 2.75  10 2.75  30 2.75  35 2.75
                            38 2.75  36 2.75  18 2.75  28 2.75
  16  0.500  0.500  0.592-  38 2.75  30 2.75  29 2.75   1 2.75  11 2.75  40 2.75   2 2.75  26 2.75
                            41 2.75
  17  0.333  0.583  0.408-  38 2.75   7 2.75  20 2.75  23 2.75   3 2.75   9 2.75  47 2.75  41 2.75
                             8 2.75
  18  0.750  0.750  0.592-   5 2.75  35 2.75  26 2.75  14 2.75  39 2.75  42 2.75  11 2.75  22 2.75
                            15 2.75
  19  0.167  0.417  0.500-  33 2.75  37 2.75  39 2.75   8 2.75  35 2.75  43 2.75  45 2.75  24 2.75
                            41 2.75  47 2.75  20 2.75   2 2.75
  20  0.333  0.333  0.408-  41 2.75  17 2.75  21 2.75   6 2.75  47 2.75   7 2.75  33 2.75  43 2.75
                            19 2.75
  21  0.333  0.083  0.408-  43 2.75  20 2.75  33 2.75  36 2.75   3 2.75   6 2.75  48 2.75  10 2.75
                            45 2.75
  22  0.000  0.750  0.592-  44 2.75   8 2.75  14 2.75  32 2.75  39 2.75   2 2.75  18 2.75   1 2.75
                            35 2.75
  23  0.083  0.833  0.408-   4 2.75  12 2.75  17 2.75  47 2.75  48 2.75   3 2.75  25 2.75   8 2.75
                            44 2.75
  24  0.917  0.417  0.500-  31 2.75  34 2.75  26 2.75  15 2.75  27 2.75  35 2.75  45 2.75  19 2.75
                            30 2.75  28 2.75  39 2.75  33 2.75
  25  0.833  0.833  0.408-  44 2.75  12 2.75  28 2.75   6 2.75  47 2.75  23 2.75  36 2.75  35 2.75
                             5 2.75
  26  0.750  0.500  0.592-  15 2.75  24 2.75  18 2.75  11 2.75  29 2.75  34 2.75  16 2.75  39 2.75
                            30 2.75
  27  0.917  0.167  0.500-  12 2.75  32 2.75  29 2.75   4 2.75  30 2.75  24 2.75  44 2.75  13 2.75
                            45 2.75  31 2.75  34 2.75  48 2.75
  28  0.833  0.583  0.408-  35 2.75  31 2.75  33 2.75  25 2.75  36 2.75   9 2.75  47 2.75  24 2.75
                            15 2.75
  29  0.750  0.250  0.592-  30 2.75  27 2.75  26 2.75  14 2.75  16 2.75  32 2.75  34 2.75  40 2.75
                            13 2.75
  30  0.667  0.417  0.500-   7 2.75  29 2.75  16 2.75  13 2.75  27 2.75  15 2.75  38 2.75  24 2.75
                            41 2.75   9 2.75  26 2.75  31 2.75
  31  0.833  0.333  0.408-  24 2.75  12 2.75   9 2.75  28 2.75  48 2.75  33 2.75   7 2.75  27 2.75
                            30 2.75
  32  0.000  0.000  0.592-  27 2.75   4 2.75  22 2.75   1 2.75  29 2.75  34 2.75  14 2.75  46 2.75
                            44 2.75
  33  0.083  0.333  0.408-  19 2.75  21 2.75  28 2.75  47 2.75  48 2.75  20 2.75  31 2.75  45 2.75
                            24 2.75
  34  0.000  0.250  0.592-  24 2.75  45 2.75  32 2.75  39 2.75  26 2.75  46 2.75  37 2.75  29 2.75
                            27 2.75
  35  0.917  0.667  0.500-  28 2.75  39 2.75  18 2.75  24 2.75   5 2.75  19 2.75  44 2.75   8 2.75
                            15 2.75  25 2.75  22 2.75  47 2.75
  36  0.583  0.833  0.408-   5 2.75   6 2.75   9 2.75  21 2.75  28 2.75  25 2.75   3 2.75  15 2.75
                            10 2.75
  37  0.250  0.250  0.592-  19 2.75  43 2.75  39 2.75  42 2.75   2 2.75  46 2.75  40 2.75  34 2.75
                            45 2.75
  38  0.417  0.667  0.500-  17 2.75  16 2.75   1 2.75   4 2.75  10 2.75  30 2.75  41 2.75   8 2.75
                            15 2.75   3 2.75  11 2.75   9 2.75
  39  0.000  0.500  0.592-  35 2.75  19 2.75  22 2.75  34 2.75  18 2.75  37 2.75  26 2.75   2 2.75
                            24 2.75
  40  0.500  0.250  0.592-  41 2.75  13 2.75  14 2.75  16 2.75   2 2.75  42 2.75  29 2.75  37 2.75
                            43 2.75
  41  0.417  0.417  0.500-  20 2.75  40 2.75   2 2.75   8 2.75  38 2.75  13 2.75  43 2.75  30 2.75
                            19 2.75  17 2.75  16 2.75   7 2.75
  42  0.500  0.000  0.592-  43 2.75   5 2.75  18 2.75  37 2.75  40 2.75  11 2.75  14 2.75  46 2.75
                            10 2.75
  43  0.417  0.167  0.500-  21 2.75  42 2.75  37 2.75   5 2.75  10 2.75  41 2.75  19 2.75  13 2.75
                            45 2.75  20 2.75  40 2.75   6 2.75
  44  0.917  0.917  0.500-  25 2.75  22 2.75  14 2.75  13 2.75   8 2.75  27 2.75  35 2.75   5 2.75
                             4 2.75  12 2.75  32 2.75  23 2.75
  45  0.167  0.167  0.500-  48 2.75  46 2.75  34 2.75  24 2.75   4 2.75  10 2.75  19 2.75  27 2.75
                            43 2.75  33 2.75  37 2.75  21 2.75
  46  0.250  0.000  0.592-  45 2.75  10 2.75  11 2.75  34 2.75  37 2.75   1 2.75  42 2.75  32 2.75
                             4 2.75
  47  0.083  0.583  0.408-   8 2.75  20 2.75  23 2.75  25 2.75  33 2.75  28 2.75  17 2.75  19 2.75
                            35 2.75
  48  0.083  0.083  0.408-  45 2.75  23 2.75  31 2.75  33 2.75   3 2.75  12 2.75  21 2.75   4 2.75
                            27 2.75

  LATTYP: Found a hexagonal cell.
 ALAT       =    11.0025815153
 C/A-ratio  =     2.2260035120

  Lattice vectors:

 A1 = (   5.5012907576,  -9.5285150994,   0.0000000000)
 A2 = ( -11.0025815153,   0.0000000000,   0.0000000000)
 A3 = (   0.0000000000,   0.0000000000, -24.4917850943)

Analysis of symmetry for initial positions (statically):
 Subroutine PRICEL returns:
 Original cell was already a primitive cell.

 Routine SETGRP: Setting up the symmetry group for a
 hexagonal supercell.

 Subroutine GETGRP returns: Found  1 space group operations
 (whereof  1 operations were pure point group operations)
 out of a pool of 24 trial point group operations.

The static configuration has the point symmetry C_1 .

Analysis of symmetry for dynamics (positions and initial velocities):
 Subroutine PRICEL returns:
 Original cell was already a primitive cell.

 Routine SETGRP: Setting up the symmetry group for a
 hexagonal supercell.

 Subroutine GETGRP returns: Found  1 space group operations
 (whereof  1 operations were pure point group operations)
 out of a pool of 24 trial point group operations.

The dynamic configuration has the point symmetry C_1 .

 KPOINTS: Automatic mesh

Automatic generation of k-mesh.
Space group operators:
 irot       det(A)        alpha          n_x          n_y          n_z        tau_x        tau_y        tau_z
    1     1.000000     0.000000     1.000000     0.000000     0.000000     0.000000     0.000000     0.000000

 Subroutine IBZKPT returns following result:

 Found      6 irreducible k-points:

 Following reciprocal coordinates:
            Coordinates               Weight
  0.250000  0.250000  0.000000     16.000000
  0.000000  0.250000  0.000000     16.000000
 -0.250000  0.000000  0.000000     16.000000
 -0.250000  0.250000  0.000000     16.000000
  0.500000 -0.250000  0.000000     16.000000
 -0.250000  0.500000  0.000000     16.000000

 Following cartesian coordinates:
            Coordinates               Weight
  0.022722  0.013119  0.000000     16.000000
  0.000000  0.026237  0.000000     16.000000
[...]
 dipolmoment           0.000000      0.000000      0.006526 electrons x Angstroem
 Tr[quadrupol]    -10256.875632

 energy correction for charged system         0.000000 eV
 dipol+quadrupol energy correction           -0.000002 eV
 added-field ion interaction          0.002200 eV  (added to PSCEN)

  free energy =  -0.192136584972E+03  energy without entropy=  -0.191874314973E+03

 average (electrostatic) potential at core
  the test charge radii are     1.2098  1.1199
  (the norm of the test charge is              1.0000)
       1 -74.0395       2 -73.9114       3 -74.0133       4 -74.1838       5 -74.1861
       6 -73.9475       7 -73.9959       8 -74.1421       9 -73.9293      10 -74.1773
      11 -73.9672      12 -73.9524      13 -74.1080      14 -73.8697      15 -74.1479
      16 -73.9723      17 -74.0885      18 -73.8759      19 -74.1647      20 -74.0047
      21 -73.9229      22 -73.9477      23 -73.9336      24 -74.1208      25 -80.8621
      26 -80.8044      27 -80.9759      28 -80.7928      29 -80.8377      30 -80.9481
      31 -80.8130      32 -80.8672      33 -80.7996      34 -80.8177      35 -80.8716
      36 -80.8253      37 -80.8326      38 -80.8235      39 -80.7894      40 -80.8526
      41 -80.8830      42 -80.8309      43 -80.8400      44 -80.9261      45 -80.9625
      46 -80.8747      47 -80.8236      48 -80.7947

 E-fermi :  -1.0867     XC(G=0):  -4.5462     alpha+bet : -4.5211

[...]

 k-point     6 :      -0.2500    0.5000    0.0000
  band No.  band energies     occupation
      1      -8.5099      2.00000
      2      -8.1358      2.00000
      3      -7.8721      2.00000
      4      -7.5183      2.00000
      5      -7.2793      2.00000
      6      -7.1993      2.00000
      7      -7.0513      2.00000
      8      -6.9030      2.00000
      9      -6.8656      2.00000
     10      -6.7870      2.00000
     11      -6.7523      2.00000
     12      -6.6994      2.00000
     13      -6.6592      2.00000
     14      -6.6311      2.00000
     15      -6.5715      2.00000
     16      -6.5559      2.00000
     17      -6.5162      2.00000
     18      -6.4850      2.00000
     19      -6.4544      2.00000
     20      -6.4232      2.00000
     21      -6.4071      2.00000
     22      -6.3766      2.00000
     23      -6.3317      2.00000
     24      -6.3262      2.00000
     25      -6.2925      2.00000
     26      -6.2480      2.00000
     27      -6.2283      2.00000
     28      -6.2103      2.00000
     29      -6.1798      2.00000
     30      -6.1527      2.00000
     31      -6.1357      2.00000
     32      -6.0916      2.00000
     33      -6.0804      2.00000
     34      -6.0723      2.00000
     35      -6.0644      2.00000
     36      -6.0332      2.00000
     37      -5.9917      2.00000
     38      -5.9678      2.00000
     39      -5.9307      2.00000
     40      -5.9109      2.00000
     41      -5.8929      2.00000
     42      -5.8461      2.00000
     43      -5.8221      2.00000
     44      -5.7989      2.00000
     45      -5.7639      2.00000
     46      -5.7469      2.00000
     47      -5.7145      2.00000
     48      -5.6572      2.00000
     49      -5.6186      2.00000
     50      -5.6003      2.00000
     51      -5.5747      2.00000
     52      -5.5461      2.00000
     53      -5.5229      2.00000
     54      -5.4981      2.00000
     55      -5.4578      2.00000
     56      -5.4219      2.00000
     57      -5.4018      2.00000
     58      -5.3633      2.00000
     59      -5.3466      2.00000
     60      -5.3330      2.00000
[...]
    292       4.1910      0.00000
    293       4.4592      0.00000
    294       4.5283      0.00000
    295       4.6206      0.00000
    296       4.6347      0.00000
    297       4.7073      0.00000
    298       4.7520      0.00000
    299       4.8694      0.00000
    300       4.9425      0.00000
    301       4.9751      0.00000
    302       5.0472      0.00000
    303       5.0622      0.00000
    304       5.0735      0.00000
    305       5.1227      0.00000
    306       5.2365      0.00000

 soft charge-density along one line, spin component           1
         0         1         2         3         4         5         6         7         8         9
 total charge-density along one line

------------------------ aborting loop because EDIFF is reached ----------------------------------------

 VOLUME and BASIS-vectors are now :
  energy-cutoff  :      400.00
  volume of cell :     2567.68
      direct lattice vectors                 reciprocal lattice vectors
    11.002581515  0.000000000  0.000000000     0.090887761 -0.052474073  0.000000000
     5.501290758  9.528515099  0.000000000     0.000000000  0.104948147  0.000000000
     0.000000000  0.000000000 24.491785094     0.000000000  0.000000000  0.040830017

  length of vectors
    11.002581515 11.002581515 24.491785094     0.104948147  0.104948147  0.040830017

 FORCES acting on ions
    electron-ion (+dipol)            ewald-force                    non-local-force                 convergence-correction
   -.894E+01 -.107E+02 -.225E+04   0.905E+01 0.115E+02 0.225E+04   -.114E+00 -.820E+00 0.181E-01   -.778E-03 0.184E-02 0.185E-02
   -.719E+01 0.235E+02 -.229E+04   0.680E+01 -.245E+02 0.229E+04   0.402E+00 0.102E+01 0.415E-01   -.828E-04 0.657E-03 0.308E-02
   -.433E+01 0.367E+01 0.226E+04   0.468E+01 -.339E+01 -.226E+04   -.353E+00 -.270E+00 0.699E-01   -.370E-03 0.660E-03 -.166E-02
   0.682E+00 0.176E+02 0.200E+02   -.973E+00 -.168E+02 -.194E+02   0.296E+00 -.814E+00 -.587E+00   -.175E-02 -.489E-03 -.137E-03
   -.658E+01 -.309E+01 -.644E+02   0.698E+01 0.293E+01 0.637E+02   -.408E+00 0.171E+00 0.644E+00   0.160E-02 -.963E-03 -.144E-02
   -.586E+01 0.228E+02 0.228E+04   0.562E+01 -.235E+02 -.228E+04   0.243E+00 0.687E+00 -.311E-01   0.112E-02 -.165E-02 -.282E-02
   -.716E+01 -.260E+01 0.225E+04   0.781E+01 0.287E+01 -.225E+04   -.654E+00 -.276E+00 -.291E+00   0.165E-02 -.709E-03 -.254E-02
   -.923E+01 -.339E+01 -.403E+02   0.898E+01 0.329E+01 0.397E+02   0.240E+00 0.989E-01 0.616E+00   -.895E-03 0.170E-02 -.193E-02
   -.243E+02 -.314E+01 0.224E+04   0.249E+02 0.299E+01 -.224E+04   -.628E+00 0.164E+00 -.336E+00   0.128E-02 -.305E-03 -.351E-02
   0.516E+01 0.719E+01 -.362E+01   -.520E+01 -.662E+01 0.418E+01   0.352E-01 -.570E+00 -.549E+00   0.149E-03 -.170E-02 -.766E-03
   0.117E+02 -.697E+01 -.228E+04   -.115E+02 0.726E+01 0.228E+04   -.242E+00 -.292E+00 -.860E-01   -.653E-04 0.124E-02 0.188E-02
   -.256E+01 0.933E+01 0.224E+04   0.331E+01 -.928E+01 -.224E+04   -.757E+00 -.414E-01 -.150E+00   0.152E-02 0.114E-03 -.146E-02
   0.451E+01 0.487E+01 0.148E+02   -.436E+01 -.411E+01 -.137E+02   -.154E+00 -.743E+00 -.114E+01   0.237E-02 -.242E-02 0.850E-03
   -.223E+01 -.298E+02 -.231E+04   0.238E+01 0.305E+02 0.231E+04   -.155E+00 -.713E+00 0.116E+00   0.156E-02 0.762E-03 0.117E-02
   0.918E+01 -.605E+01 -.554E+02   -.924E+01 0.549E+01 0.548E+02   0.614E-01 0.550E+00 0.588E+00   0.103E-02 0.110E-02 -.249E-02
   -.323E+01 0.171E+02 -.220E+04   0.377E+01 -.180E+02 0.220E+04   -.539E+00 0.936E+00 0.697E+00   -.825E-04 -.587E-03 0.366E-02
   0.922E+01 -.336E+01 0.222E+04   -.960E+01 0.304E+01 -.222E+04   0.388E+00 0.327E+00 -.358E+00   -.779E-03 0.663E-03 -.309E-02
   0.972E+01 0.264E+00 -.234E+04   -.979E+01 -.923E+00 0.234E+04   0.636E-01 0.663E+00 0.443E-01   0.724E-03 0.376E-03 0.513E-03
   -.141E+02 -.307E+01 -.312E+02   0.141E+02 0.261E+01 0.312E+02   -.139E-01 0.451E+00 -.987E-02   -.365E-03 0.286E-02 -.224E-02
   0.135E+02 -.147E+02 0.224E+04   -.140E+02 0.150E+02 -.224E+04   0.517E+00 -.321E+00 -.313E+00   -.567E-03 0.100E-02 -.310E-02
   0.592E+01 -.472E+00 0.228E+04   -.642E+01 0.717E+00 -.228E+04   0.495E+00 -.249E+00 -.194E+00   -.113E-02 -.850E-03 -.339E-02
   -.115E+02 -.544E+01 -.229E+04   0.113E+02 0.540E+01 0.229E+04   0.275E+00 0.436E-01 0.214E+00   0.154E-03 0.160E-02 -.587E-03
   0.204E+02 0.816E+01 0.227E+04   -.211E+02 -.806E+01 -.227E+04   0.726E+00 -.101E+00 0.203E+00   -.752E-03 0.633E-03 -.405E-02
   0.813E+00 -.252E+01 -.312E+02   -.113E+01 0.208E+01 0.312E+02   0.314E+00 0.435E+00 -.216E-01   -.880E-03 0.848E-03 -.326E-02
   0.584E+01 0.233E+02 0.191E+04   -.591E+01 -.239E+02 -.191E+04   0.646E-01 0.506E+00 -.180E+01   0.127E-03 -.165E-03 -.220E-02
   0.752E+01 0.264E+02 -.201E+04   -.729E+01 -.268E+02 0.201E+04   -.251E+00 0.392E+00 0.164E+01   0.891E-03 -.231E-03 0.232E-02
   0.577E+01 0.525E+01 0.200E+02   -.564E+01 -.518E+01 -.196E+02   -.129E+00 -.682E-01 -.329E+00   -.200E-02 -.103E-02 -.141E-02
   -.157E+02 -.869E+01 0.196E+04   0.161E+02 0.874E+01 -.196E+04   -.375E+00 -.340E-01 -.151E+01   0.304E-03 -.358E-03 -.276E-02
   -.738E+01 -.439E+01 -.197E+04   0.786E+01 0.435E+01 0.197E+04   -.482E+00 0.410E-01 0.173E+01   0.342E-03 -.239E-02 0.183E-02
   0.123E+02 -.625E+01 0.159E+02   -.124E+02 0.603E+01 -.154E+02   0.713E-01 0.220E+00 -.509E+00   0.159E-02 -.137E-02 -.147E-02
   -.145E+02 -.967E+01 0.198E+04   0.149E+02 0.950E+01 -.198E+04   -.389E+00 0.189E+00 -.170E+01   0.128E-02 -.158E-02 -.354E-02
   -.120E+02 -.210E+02 -.197E+04   0.119E+02 0.216E+02 0.197E+04   0.115E+00 -.585E+00 0.175E+01   -.806E-03 0.374E-03 0.128E-02
   0.931E+01 -.204E+02 0.199E+04   -.982E+01 0.203E+02 -.199E+04   0.517E+00 0.905E-01 -.161E+01   -.229E-02 0.286E-03 -.391E-02
   -.211E+01 0.129E+02 -.200E+04   0.202E+01 -.129E+02 0.200E+04   0.857E-01 0.546E-01 0.182E+01   -.179E-02 -.116E-02 0.287E-02
   -.317E+01 -.877E+01 -.999E+02   0.341E+01 0.899E+01 0.990E+02   -.235E+00 -.221E+00 0.861E+00   -.961E-04 0.102E-02 -.153E-02
   -.216E+02 0.160E+02 0.196E+04   0.219E+02 -.163E+02 -.196E+04   -.274E+00 0.273E+00 -.129E+01   0.711E-03 -.462E-03 -.218E-02
   0.590E+01 0.138E+02 -.197E+04   -.592E+01 -.142E+02 0.197E+04   0.214E-01 0.375E+00 0.184E+01   0.345E-03 -.623E-03 0.349E-02
   0.250E+01 -.102E+01 -.485E+01   -.257E+01 0.395E+00 0.486E+01   0.741E-01 0.633E+00 -.118E-01   -.407E-03 0.147E-02 -.139E-02
   0.323E+01 0.274E+02 -.202E+04   -.356E+01 -.275E+02 0.202E+04   0.341E+00 0.116E+00 0.150E+01   -.647E-03 0.124E-02 0.251E-02
   0.418E+01 0.401E+00 -.195E+04   -.454E+01 -.559E+00 0.195E+04   0.363E+00 0.161E+00 0.161E+01   0.113E-02 -.115E-02 0.300E-02
   -.810E+00 -.549E+01 0.118E+02   0.118E+01 0.525E+01 -.113E+02   -.368E+00 0.219E+00 -.485E+00   -.620E-03 0.129E-02 -.101E-02
   0.124E+02 -.244E+02 -.199E+04   -.126E+02 0.251E+02 0.199E+04   0.164E+00 -.696E+00 0.151E+01   0.136E-03 -.209E-04 0.212E-02
   -.578E+01 -.306E+00 0.569E+02   0.561E+01 0.592E+00 -.556E+02   0.173E+00 -.285E+00 -.130E+01   0.107E-02 -.137E-02 -.682E-03
   0.104E+01 0.326E+01 -.411E+02   -.103E+01 -.332E+01 0.411E+02   0.325E-02 0.573E-01 -.263E-02   0.104E-03 0.130E-02 -.488E-03
   -.465E+01 0.478E+01 0.283E+02   0.454E+01 -.469E+01 -.279E+02   0.113E+00 -.831E-01 -.371E+00   -.171E-02 -.772E-03 -.174E-02
   0.283E+01 -.203E+02 -.198E+04   -.267E+01 0.209E+02 0.198E+04   -.170E+00 -.651E+00 0.165E+01   -.109E-02 -.104E-02 0.258E-02
   0.283E+02 -.755E+01 0.195E+04   -.289E+02 0.767E+01 -.195E+04   0.535E+00 -.111E+00 -.148E+01   -.543E-03 0.488E-03 -.261E-02
   0.287E+01 -.147E+02 0.200E+04   -.289E+01 0.153E+02 -.199E+04   0.342E-01 -.645E+00 -.170E+01   -.182E-02 0.148E-02 -.371E-02
   -.207E-01 -.243E+00 -.950E+00   0.533E-12 0.213E-13 -.296E-11   0.417E-01 0.280E+00 0.981E+00   -.113E-02 0.160E-02 -.341E-01

 POSITION                                       TOTAL-FORCE (eV/Angst)
      6.88493      7.17016     14.77121        -0.005727      0.001634      0.001189
      5.48828      4.71934     14.81784         0.009061     -0.001574     -0.000898
      8.25937      7.94586      9.69314        -0.001358      0.003632     -0.013720
      6.85998      8.75712     12.21936         0.003276      0.007674      0.006889
     12.39134      8.74500     12.30269        -0.007855      0.003554      0.003137
      6.87471      0.75927      9.66640         0.005177      0.005864     -0.000418
      8.27474      3.17612      9.70046         0.002914     -0.009004     -0.011557
      5.49117      6.35963     12.27635        -0.007438      0.006188      0.004176
      9.66695      5.55488      9.74067         0.007156      0.009261     -0.006213
      9.61955      8.75246     12.24259        -0.005599     -0.000444      0.004374
      9.63623      7.15975     14.81077        -0.002950     -0.000716      0.004565
      9.64783      0.78771      9.72901        -0.006307      0.004970     -0.012055
      8.25717      1.60537     12.23004        -0.006964      0.015901      0.000517
      8.26387      0.03444     14.83029        -0.001582     -0.004289      0.002013
     10.99634      6.34432     12.29348         0.003387     -0.010098      0.002736
      8.27106      4.73082     14.67506         0.001419     -0.008266     -0.002488
      6.86449      5.55757      9.74603         0.001381      0.010940     -0.008712
     12.37771      7.12680     14.90191        -0.003334      0.003619      0.003386
      4.12818      3.95936     12.26945        -0.003535     -0.007134      0.004551
      5.47020      3.18507      9.72441         0.002095      0.004143     -0.009924
      4.10462      0.80433      9.67265        -0.007615     -0.005273     -0.002675
      4.12462      7.14776     14.83926         0.007185      0.000791      0.012678
      5.46907      7.93764      9.69252         0.000160     -0.000745      0.014333
     12.36554      3.95525     12.27143        -0.001291     -0.003643      0.000096
     13.74669      7.91957      9.96614         0.000359     -0.002973     -0.003967
     11.01897      4.73772     14.66088        -0.011867     -0.001451     -0.001260
     10.99617      1.59120     12.20904         0.005127     -0.000237      0.006915
     12.40033      5.56391      9.92636        -0.004216      0.008282     -0.000061
      9.65551      2.37665     14.57873         0.000065     -0.002077     -0.002882
      9.61171      3.97632     12.21993         0.000226     -0.008486      0.001702
     11.03401      3.17629      9.87247        -0.004574      0.009221      0.005150
      0.01490      0.03099     14.60409         0.002222     -0.007120     -0.002121
      2.71959      3.18960      9.86675         0.001489      0.004989      0.000964
      1.37945      2.37362     14.60249        -0.002643     -0.006329      0.003933
     13.75392      6.36490     12.35906         0.002961     -0.002203      0.000415
     11.01650      7.93089      9.88477         0.002410     -0.001790     -0.004494
      4.12746      2.35004     14.58178         0.001736     -0.004660      0.003981
      8.24572      6.34137     12.24140         0.003628      0.009225     -0.003975
      2.73895      4.72552     14.68527         0.005999      0.000801      0.002322
      6.86620      2.36705     14.56850        -0.001414      0.000895     -0.006204
      6.88012      3.97866     12.22158         0.004205     -0.017112      0.002545
      5.49559      0.02539     14.63524         0.000674      0.000042     -0.002107
      5.49507      1.59803     12.17202         0.003339     -0.000406      0.011280
     15.12742      8.74452     12.28951         0.009987     -0.004682      0.001961
      2.74896      1.58837     12.19795        -0.004127      0.001826     -0.002724
      2.75320      0.03050     14.59893        -0.001862     -0.004260     -0.005383
      4.09853      5.56148      9.91991        -0.002059      0.006536      0.000524
      1.37231      0.80873      9.82303         0.006680     -0.005014     -0.002496
    total drift:                                0.019903      0.038108     -0.003660

  FREE ENERGIE OF THE ION-ELECTRON SYSTEM (eV)
  free  energy   TOTEN  =      -192.13658497 eV

  energy  without entropy=     -191.87431497  energy(sigma->0) =     -192.00544997

 d Force = 0.5626270E-03[ 0.637E-04, 0.106E-02]  d Energy = 0.5892186E-03-0.266E-04
 d Force = 0.2758621E+02[ 0.276E+02, 0.276E+02]  d Ewald  = 0.2758621E+02-0.207E-05

 stress matrix after NEB project (eV)
      0.00000      0.00000      0.00000
      0.00000      0.00000      0.00000
      0.00000      0.00000      0.00000
  FORCES: max atom, RMS     0.017804    0.009838
  FORCE total and by dimension    0.068159    0.017112
  Stress total and by dimension    0.000000    0.000000
 Conjugate gradient step on ions:
 trial-energy change:   -0.000589  1 .order   -0.000563   -0.001062   -0.000064
  (g-gl).g = 0.351E-03      g.g   = 0.335E-03  gl.gl    = 0.714E-03
 g(Force)  = 0.335E-03   g(Stress)= 0.000E+00 ortho     =-0.263E-05
 gamma     =   0.49159
 trial     =   3.18509
 opt step  =   3.35900  (harmonic =   3.38832) maximal distance =0.00554723
 next E    =  -192.136587   (d E  =  -0.00059)

 reached required accuracy - stopping structural energy minimisation