 vasp.5.4.1 24Jun15 (build Mar 14 2019 10:18:33) complex

 executed on INTEL-19.0.2+OPENMPI date 2022.07.16  14:59:53

 INCAR:
 POTCAR:    PAW_PBE Au 04Oct2007
 POTCAR:    PAW_PBE Pd 04Jan2005
 POTCAR:    PAW_PBE Au 04Oct2007

 POTCAR:    PAW_PBE Pd 04Jan2005

 Optimization of the real space projectors (new method)

 maximal supplied QI-value         = 15.12
 optimisation between [QCUT,QGAM] = [ 10.13, 20.41] = [ 28.73,116.64] Ry
 Optimized for a Real-space Cutoff    1.51 Angstroem

   l    n(q)    QCUT    max X(q) W(low)/X(q) W(high)/X(q)  e(spline)
   2      8    10.129    60.898    0.46E-03    0.46E-03    0.14E-06
   2      8    10.129    58.894    0.47E-03    0.47E-03    0.14E-06
   0      9    10.129   109.617    0.16E-03    0.11E-03    0.54E-07
   0      9    10.129    75.026    0.15E-03    0.11E-03    0.52E-07
   1      9    10.129    16.344    0.96E-04    0.15E-03    0.14E-06
   1      9    10.129    10.160    0.81E-04    0.12E-03    0.11E-06
 Optimization of the real space projectors (new method)

 maximal supplied QI-value         = 14.36
 optimisation between [QCUT,QGAM] = [ 10.20, 20.39] = [ 29.12,116.47] Ry
 Optimized for a Real-space Cutoff    1.51 Angstroem

   l    n(q)    QCUT    max X(q) W(low)/X(q) W(high)/X(q)  e(spline)
   2      8    10.197    59.108    0.26E-03    0.14E-03    0.96E-07
   2      8    10.197    58.101    0.27E-03    0.14E-03    0.98E-07
   0      9    10.197   102.235    0.54E-04    0.60E-05    0.72E-07
   0      9    10.197    58.388    0.52E-04    0.60E-05    0.68E-07
   1      9    10.197    22.191    0.18E-03    0.25E-03    0.79E-07
   1      9    10.197    15.590    0.15E-03    0.21E-03    0.69E-07
  PAW_PBE Au 04Oct2007                  :
  PAW_PBE Pd 04Jan2005                  :

 POSCAR: Au Pd
  positions in direct lattice
  velocities in cartesian coordinates
 exchange correlation table for  LEXCH =        8
   RHO(1)=    0.500       N(1)  =     2000
   RHO(2)=  100.500       N(2)  =     4000

 VTST: version 3.2, (02/03/18)

 CHAIN: initializing optimizer

 OPT: Using VASP Conjugate-Gradient optimizer
 CHAIN: Read ICHAIN            0

 POSCAR: Au Pd
  positions in direct lattice
  velocities in cartesian coordinates

 ion  position               nearest neighbor table
   1  0.250  0.749  0.607-   7 2.74  22 2.75  11 2.77  16 2.78  40 2.79  45 2.79   8 3.07   4 3.07
                             5 3.09
   2  0.416  0.168  0.499-  10 2.74  14 2.74  39 2.75  29 2.76  42 2.78  46 2.78  43 2.85  47 2.86
                            41 2.86  38 2.87  31 2.87   3 2.96
   3  0.582  0.083  0.397-   9 2.75  38 2.76  41 2.76  12 2.77  13 2.78  27 2.78   2 2.96  46 2.97
                            29 2.97
   4  0.418  0.668  0.500-  17 2.75  10 2.75  26 2.77  14 2.77   5 2.77   8 2.80  28 2.87  44 2.89
                            11 3.00   1 3.07   6 3.08   7 3.12
   5  0.166  0.919  0.500-  23 2.73  39 2.76  37 2.77  10 2.77   4 2.77   8 2.78  40 2.86  30 2.87
                            18 2.99  22 3.03   6 3.08   1 3.09
   6  0.334  0.834  0.393-  30 2.76  18 2.76   9 2.76  38 2.76  28 2.76  44 2.77  10 3.08   4 3.08
                             5 3.08
   7  0.498  0.498  0.609-   1 2.74  19 2.75  47 2.75  45 2.76  11 2.81  21 2.82  14 3.08   4 3.12
                            17 3.14
   8  0.164  0.667  0.500-  35 2.73  42 2.74  37 2.74  14 2.77   5 2.78   4 2.80  45 2.88  44 2.88
                            16 2.96  18 2.97  20 3.00   1 3.07
   9  0.586  0.831  0.398-  28 2.73  25 2.74  27 2.75   3 2.75   6 2.76  38 2.81  46 2.95  10 2.95
                            26 2.96
  10  0.418  0.918  0.500-   2 2.74   4 2.75  46 2.76  26 2.76   5 2.77  39 2.78  31 2.84  38 2.88
                            40 2.88   9 2.95  11 3.02   6 3.08
  11  0.500  0.752  0.605-  48 2.73  31 2.74  40 2.76   1 2.77  21 2.78   7 2.81   4 3.00  26 3.00
                            10 3.02
  12  0.834  0.082  0.399-  18 2.75  27 2.76  30 2.77   3 2.77  13 2.78  15 2.80  29 2.92  23 2.95
                            37 2.96
  13  0.581  0.336  0.396-  44 2.73  28 2.75  41 2.76   3 2.78  12 2.78  15 2.80  29 3.00  14 3.00
                            17 3.01
  14  0.417  0.416  0.500-   2 2.74  29 2.76   8 2.77   4 2.77  17 2.78  42 2.78  47 2.85  45 2.86
                            44 2.87  41 2.89  13 3.00   7 3.08
  15  0.836  0.335  0.395-  25 2.72  32 2.73  28 2.76  30 2.76  12 2.80  13 2.80  33 3.02  17 3.02
                            23 3.03
  16  0.999  0.746  0.602-  36 2.73  48 2.74  45 2.75   1 2.78  24 2.79  22 2.80  35 2.94   8 2.96
                            37 2.96
  17  0.669  0.418  0.500-  33 2.74  23 2.74  26 2.75   4 2.75  29 2.78  14 2.78  28 2.85  21 2.98
                            19 3.00  13 3.01  15 3.02   7 3.14
  18  0.084  0.833  0.397-  12 2.75  27 2.75  44 2.76   6 2.76  30 2.77  20 2.78   8 2.97   5 2.99
                            37 3.02
  19  0.749  0.250  0.603-   7 2.75  22 2.76  24 2.76  47 2.77  21 2.77  34 2.79  29 2.99  23 2.99
                            17 3.00
  20  0.083  0.581  0.397-  41 2.73  25 2.73  32 2.74  27 2.75  44 2.77  18 2.78  42 2.94  35 2.99
                             8 3.00
  21  0.753  0.499  0.603-  36 2.73  48 2.74  34 2.75  19 2.77  11 2.78   7 2.82  33 2.97  26 2.97
                            17 2.98
  22  0.001  1.000  0.606-  40 2.75   1 2.75  34 2.76  19 2.76  24 2.80  16 2.80  37 3.02   5 3.03
                            23 3.05
  23  0.917  0.168  0.500-   5 2.73  39 2.74  17 2.74  29 2.76  33 2.76  37 2.77  34 2.85  30 2.88
                            12 2.95  19 2.99  15 3.03  22 3.05
  24  0.746  1.000  0.600-  31 2.72  48 2.74  47 2.75  19 2.76  16 2.79  22 2.80  46 2.90  37 2.90
                            29 2.94
  25  0.835  0.582  0.405-  15 2.72  20 2.73   9 2.74  27 2.74  28 2.75  32 2.76  33 2.80  35 2.81
                            26 2.83
  26  0.670  0.667  0.501-  35 2.71  33 2.73  46 2.74  17 2.75  10 2.76   4 2.77  48 2.78  25 2.83
                            28 2.90   9 2.96  21 2.97  11 3.00
  27  0.835  0.831  0.405-  25 2.74   9 2.75  20 2.75  18 2.75  12 2.76   3 2.78  46 2.80  35 2.81
                            37 2.85
  28  0.584  0.584  0.403-   9 2.73  25 2.75  13 2.75  15 2.76  44 2.76   6 2.76  17 2.85   4 2.87
                            26 2.90
  29  0.668  0.166  0.499-  37 2.73  46 2.74   2 2.76  14 2.76  23 2.76  17 2.78  47 2.90  12 2.92
                            24 2.94   3 2.97  19 2.99  13 3.00
  30  0.085  0.084  0.402-  38 2.71  32 2.72   6 2.76  15 2.76  12 2.77  18 2.77   5 2.87  39 2.88
                            23 2.88
  31  0.498  0.001  0.597-  24 2.72  47 2.73  40 2.74  11 2.74  43 2.74  48 2.77  10 2.84   2 2.87
                            46 2.89
  32  0.085  0.332  0.404-  38 2.71  30 2.72  15 2.73  41 2.73  20 2.74  25 2.76  42 2.81  39 2.81
                            33 2.85
  33  0.918  0.419  0.500-  42 2.70  39 2.73  35 2.73  26 2.73  17 2.74  23 2.76  36 2.79  25 2.80
                            32 2.85  34 2.87  21 2.97  15 3.02
  34  0.002  0.249  0.597-  43 2.72  40 2.72  36 2.73  21 2.75  22 2.76  19 2.79  39 2.84  23 2.85
                            33 2.87
  35  0.916  0.667  0.500-  26 2.71  42 2.72  46 2.73   8 2.73  33 2.73  37 2.74  27 2.81  25 2.81
                            36 2.83  48 2.84  16 2.94  20 2.99
  36  0.002  0.497  0.595-  45 2.72  43 2.72  21 2.73  34 2.73  16 2.73  48 2.77  33 2.79  42 2.81
                            35 2.83
  37  0.915  0.917  0.501-  46 2.71  29 2.73  35 2.74   8 2.74   5 2.77  23 2.77  27 2.85  24 2.90
                            16 2.96  12 2.96  18 3.02  22 3.02
  38  0.330  0.085  0.402-  32 2.71  30 2.71  41 2.74   3 2.76   6 2.76   9 2.81   2 2.87  39 2.87
                            10 2.88
  39  0.165  0.171  0.500-  42 2.72  33 2.73  23 2.74   2 2.75   5 2.76  10 2.78  43 2.81  32 2.81
                            34 2.84  38 2.87  40 2.87  30 2.88
  40  0.249  0.001  0.597-  34 2.72  43 2.73  31 2.74  22 2.75  11 2.76   1 2.79   5 2.86  39 2.87
                            10 2.88
  41  0.332  0.334  0.402-  32 2.73  20 2.73  38 2.74  44 2.75   3 2.76  13 2.76   2 2.86  42 2.87
                            14 2.89
  42  0.163  0.419  0.499-  33 2.70  39 2.72  35 2.72   8 2.74   2 2.78  14 2.78  32 2.81  36 2.81
                            41 2.87  43 2.87  45 2.87  20 2.94
  43  0.249  0.250  0.596-  34 2.72  45 2.72  36 2.72  40 2.73  47 2.73  31 2.74  39 2.81   2 2.85
                            42 2.87
  44  0.334  0.583  0.403-  13 2.73  41 2.75  18 2.76  28 2.76   6 2.77  20 2.77  14 2.87   8 2.88
                             4 2.89
  45  0.249  0.497  0.597-  36 2.72  43 2.72  47 2.73  16 2.75   7 2.76   1 2.79  14 2.86  42 2.87
                             8 2.88
  46  0.670  0.916  0.499-  37 2.71  35 2.73  26 2.74  29 2.74  10 2.76   2 2.78  27 2.80  48 2.85
                            31 2.89  24 2.90   9 2.95   3 2.97
  47  0.497  0.250  0.597-  45 2.73  31 2.73  43 2.73  24 2.75   7 2.75  19 2.77  14 2.85   2 2.86
                            29 2.90
  48  0.749  0.749  0.596-  11 2.73  21 2.74  16 2.74  24 2.74  31 2.77  36 2.77  26 2.78  35 2.84
                            46 2.85

  LATTYP: Found a hexagonal cell.
 ALAT       =    11.0025815153
 C/A-ratio  =     2.2260035120

  Lattice vectors:

 A1 = (   5.5012907576,  -9.5285150994,   0.0000000000)
 A2 = ( -11.0025815153,   0.0000000000,   0.0000000000)
 A3 = (   0.0000000000,   0.0000000000, -24.4917850943)

Analysis of symmetry for initial positions (statically):
 Subroutine PRICEL returns:
 Original cell was already a primitive cell.

 Routine SETGRP: Setting up the symmetry group for a
 hexagonal supercell.

 Subroutine GETGRP returns: Found  1 space group operations
 (whereof  1 operations were pure point group operations)
 out of a pool of 24 trial point group operations.

The static configuration has the point symmetry C_1 .

Analysis of symmetry for dynamics (positions and initial velocities):
 Subroutine PRICEL returns:
 Original cell was already a primitive cell.

 Routine SETGRP: Setting up the symmetry group for a
 hexagonal supercell.

 Subroutine GETGRP returns: Found  1 space group operations
 (whereof  1 operations were pure point group operations)
 out of a pool of 24 trial point group operations.

The dynamic configuration has the point symmetry C_1 .

 KPOINTS: Automatic mesh

Automatic generation of k-mesh.
Space group operators:
 irot       det(A)        alpha          n_x          n_y          n_z        tau_x        tau_y        tau_z
    1     1.000000     0.000000     1.000000     0.000000     0.000000     0.000000     0.000000     0.000000

 Subroutine IBZKPT returns following result:

 Found      6 irreducible k-points:

 Following reciprocal coordinates:
            Coordinates               Weight
  0.250000  0.250000  0.000000     16.000000
  0.000000  0.250000  0.000000     16.000000
 -0.250000  0.000000  0.000000     16.000000
 -0.250000  0.250000  0.000000     16.000000
  0.500000 -0.250000  0.000000     16.000000
 -0.250000  0.500000  0.000000     16.000000

 Following cartesian coordinates:
            Coordinates               Weight
  0.022722  0.013119  0.000000     16.000000
[...]
 dipolmoment           0.000000      0.000000     -0.012245 electrons x Angstroem
 Tr[quadrupol]    -10277.640904

 energy correction for charged system         0.000000 eV
 dipol+quadrupol energy correction           -0.000005 eV
 added-field ion interaction          0.000113 eV  (added to PSCEN)

  free energy =  -0.192007890178E+03  energy without entropy=  -0.191719528128E+03

 average (electrostatic) potential at core
  the test charge radii are     1.2098  1.1199
  (the norm of the test charge is              1.0000)
       1 -73.9865       2 -74.1720       3 -73.9400       4 -74.2423       5 -74.2171
       6 -73.8502       7 -73.9312       8 -74.2016       9 -73.9342      10 -74.2254
      11 -73.9836      12 -74.0329      13 -73.9688      14 -74.2573      15 -73.8478
      16 -73.9757      17 -74.1849      18 -74.0045      19 -74.0345      20 -73.8249
      21 -73.9380      22 -73.9782      23 -74.1877      24 -73.9732      25 -80.8537
      26 -80.9541      27 -80.8558      28 -80.8514      29 -80.8682      30 -80.8212
      31 -80.8343      32 -80.8531      33 -81.0285      34 -80.8213      35 -80.9998
      36 -80.8569      37 -80.8950      38 -80.8099      39 -80.9963      40 -80.8348
      41 -80.7863      42 -81.0015      43 -80.8208      44 -80.8540      45 -80.8307
      46 -80.9317      47 -80.8523      48 -80.8697

 E-fermi :  -1.0941     XC(G=0):  -4.5524     alpha+bet : -4.5211

[...]

 k-point     6 :      -0.2500    0.5000    0.0000
  band No.  band energies     occupation
      1      -8.6844      2.00000
      2      -8.1184      2.00000
      3      -7.8091      2.00000
      4      -7.5595      2.00000
      5      -7.2879      2.00000
      6      -7.1698      2.00000
      7      -7.0612      2.00000
      8      -6.9602      2.00000
      9      -6.8842      2.00000
     10      -6.8650      2.00000
     11      -6.8117      2.00000
     12      -6.7719      2.00000
     13      -6.6994      2.00000
     14      -6.6730      2.00000
     15      -6.5933      2.00000
     16      -6.5755      2.00000
     17      -6.5456      2.00000
     18      -6.5097      2.00000
     19      -6.4750      2.00000
     20      -6.4147      2.00000
     21      -6.3921      2.00000
     22      -6.3755      2.00000
     23      -6.3596      2.00000
     24      -6.3255      2.00000
     25      -6.3138      2.00000
     26      -6.2800      2.00000
     27      -6.2594      2.00000
     28      -6.2342      2.00000
     29      -6.2057      2.00000
     30      -6.1722      2.00000
     31      -6.1553      2.00000
     32      -6.1330      2.00000
     33      -6.0965      2.00000
     34      -6.0804      2.00000
     35      -6.0559      2.00000
     36      -6.0025      2.00000
     37      -5.9730      2.00000
     38      -5.9573      2.00000
     39      -5.9247      2.00000
     40      -5.9000      2.00000
     41      -5.8814      2.00000
     42      -5.8276      2.00000
     43      -5.7853      2.00000
     44      -5.7681      2.00000
     45      -5.7379      2.00000
     46      -5.7110      2.00000
     47      -5.6963      2.00000
     48      -5.6760      2.00000
     49      -5.6108      2.00000
     50      -5.5836      2.00000
     51      -5.5557      2.00000
     52      -5.5152      2.00000
     53      -5.4907      2.00000
     54      -5.4751      2.00000
     55      -5.4313      2.00000
     56      -5.4186      2.00000
     57      -5.3948      2.00000
     58      -5.3632      2.00000
     59      -5.3252      2.00000
     60      -5.2972      2.00000
[...]
    292       4.1440      0.00000
    293       4.4709      0.00000
    294       4.5212      0.00000
    295       4.5622      0.00000
    296       4.6332      0.00000
    297       4.7250      0.00000
    298       4.8057      0.00000
    299       4.8383      0.00000
    300       4.9039      0.00000
    301       4.9526      0.00000
    302       5.0291      0.00000
    303       5.0614      0.00000
    304       5.0865      0.00000
    305       5.1764      0.00000
    306       5.2171      0.00000

 soft charge-density along one line, spin component           1
         0         1         2         3         4         5         6         7         8         9
 total charge-density along one line

------------------------ aborting loop because EDIFF is reached ----------------------------------------

 VOLUME and BASIS-vectors are now :
  energy-cutoff  :      400.00
  volume of cell :     2567.68
      direct lattice vectors                 reciprocal lattice vectors
    11.002581515  0.000000000  0.000000000     0.090887761 -0.052474073  0.000000000
     5.501290758  9.528515099  0.000000000     0.000000000  0.104948147  0.000000000
     0.000000000  0.000000000 24.491785094     0.000000000  0.000000000  0.040830017

  length of vectors
    11.002581515 11.002581515 24.491785094     0.104948147  0.104948147  0.040830017

 FORCES acting on ions
    electron-ion (+dipol)            ewald-force                    non-local-force                 convergence-correction
   0.513E+01 -.292E+01 -.230E+04   -.490E+01 0.280E+01 0.230E+04   -.236E+00 0.116E+00 -.414E+00   0.664E-02 0.352E-03 0.493E-02
   -.943E+01 0.419E+01 0.198E+02   0.926E+01 -.403E+01 -.194E+02   0.189E+00 -.163E+00 -.454E+00   -.209E-01 0.505E-02 -.225E-01
   0.351E+01 0.496E+01 0.226E+04   -.379E+01 -.512E+01 -.226E+04   0.314E+00 0.150E+00 -.364E+00   -.177E-01 0.106E-01 -.202E-01
   0.113E+01 -.564E+01 -.249E+02   -.544E+00 0.533E+01 0.237E+02   -.585E+00 0.300E+00 0.124E+01   -.123E-02 0.920E-02 -.471E-02
   0.704E+01 0.170E+02 -.495E+01   -.710E+01 -.162E+02 0.506E+01   0.372E-01 -.761E+00 -.980E-01   0.224E-01 0.718E-02 -.185E-02
   -.280E+01 0.244E+01 0.233E+04   0.272E+01 -.231E+01 -.233E+04   0.721E-01 -.142E+00 0.289E+00   0.322E-02 0.631E-02 -.191E-02
   0.775E+01 0.119E+02 -.233E+04   -.873E+01 -.123E+02 0.233E+04   0.976E+00 0.399E+00 -.319E+00   -.812E-02 0.627E-02 0.163E-02
   -.355E+01 -.150E+02 -.579E+01   0.297E+01 0.148E+02 0.585E+01   0.569E+00 0.195E+00 -.458E-01   0.962E-02 -.127E-01 -.558E-02
   -.821E+01 0.929E+01 0.224E+04   0.861E+01 -.989E+01 -.224E+04   -.390E+00 0.594E+00 -.211E+00   0.589E-03 0.842E-02 -.192E-01
   0.532E+01 0.183E+02 0.146E+02   -.489E+01 -.179E+02 -.139E+02   -.418E+00 -.394E+00 -.708E+00   -.136E-01 0.152E-01 -.104E-01
   -.161E+02 -.186E+02 -.227E+04   0.168E+02 0.192E+02 0.227E+04   -.713E+00 -.616E+00 0.105E+00   -.918E-02 0.849E-02 0.534E-02
   -.123E+01 0.674E+01 0.221E+04   0.124E+01 -.731E+01 -.221E+04   -.791E-02 0.564E+00 -.411E+00   -.443E-02 0.294E-02 -.244E-01
   0.316E+01 -.909E+01 0.227E+04   -.375E+01 0.985E+01 -.227E+04   0.607E+00 -.765E+00 0.928E-01   -.131E-01 0.248E-02 -.154E-01
   -.181E+02 -.391E+01 -.159E+02   0.177E+02 0.353E+01 0.160E+02   0.456E+00 0.384E+00 -.892E-01   -.138E-01 -.248E-02 -.152E-01
   -.105E+02 -.724E+01 0.230E+04   0.116E+02 0.790E+01 -.230E+04   -.108E+01 -.665E+00 -.165E-01   0.225E-01 0.540E-02 -.104E-01
   0.165E+02 0.120E+02 -.225E+04   -.172E+02 -.128E+02 0.224E+04   0.692E+00 0.849E+00 0.425E+00   0.164E-03 -.159E-01 0.172E-01
   0.620E+01 0.514E+01 -.237E+01   -.570E+01 -.482E+01 0.180E+01   -.495E+00 -.327E+00 0.586E+00   0.651E-03 0.274E-02 -.986E-02
   0.719E+01 0.202E+01 0.225E+04   -.726E+01 -.187E+01 -.225E+04   0.657E-01 -.143E+00 0.102E+00   0.597E-02 -.730E-02 -.161E-01
   0.927E+00 0.514E+01 -.224E+04   -.123E+01 -.514E+01 0.224E+04   0.301E+00 -.123E-01 -.277E-01   -.344E-02 0.275E-02 0.108E-01
   0.776E+01 0.344E+01 0.228E+04   -.814E+01 -.397E+01 -.228E+04   0.384E+00 0.560E+00 -.394E+00   -.492E-02 -.240E-01 -.208E-01
   -.219E+02 0.115E+00 -.225E+04   0.231E+02 -.297E-01 0.225E+04   -.118E+01 -.910E-01 0.199E+00   0.588E-02 0.403E-02 0.965E-02
   -.358E+01 -.875E+01 -.229E+04   0.427E+01 0.900E+01 0.229E+04   -.706E+00 -.242E+00 -.361E-01   0.124E-01 -.814E-03 0.480E-02
   0.166E+02 0.156E+01 -.182E+00   -.163E+02 -.156E+01 0.251E+00   -.367E+00 -.808E-02 -.598E-01   0.196E-01 0.450E-02 -.149E-01
   0.186E+02 0.145E+01 -.221E+04   -.196E+02 -.144E+01 0.221E+04   0.101E+01 -.107E-01 0.563E+00   -.950E-02 0.197E-02 0.170E-01
   -.630E+00 -.324E+01 0.195E+04   0.512E+00 0.319E+01 -.194E+04   0.115E+00 0.721E-01 -.187E+01   0.135E-01 -.111E-01 -.287E-01
   0.105E+02 -.105E+01 -.240E+02   -.974E+01 0.920E+00 0.237E+02   -.780E+00 0.130E+00 0.324E+00   -.136E-01 0.761E-03 -.982E-02
   0.253E+01 0.650E+01 0.194E+04   -.277E+01 -.674E+01 -.194E+04   0.250E+00 0.247E+00 -.193E+01   -.725E-02 -.567E-02 -.305E-01
   -.516E+01 -.244E+01 0.197E+04   0.540E+01 0.253E+01 -.197E+04   -.240E+00 -.896E-01 -.139E+01   0.136E-02 -.250E-03 -.116E-01
   -.853E+01 0.964E+00 0.210E+02   0.846E+01 -.135E+01 -.205E+02   0.772E-01 0.375E+00 -.492E+00   -.979E-02 0.812E-02 -.969E-02
   -.822E+01 -.745E+01 0.198E+04   0.887E+01 0.778E+01 -.198E+04   -.672E+00 -.348E+00 -.136E+01   0.246E-01 0.167E-01 -.454E-02
   0.135E+01 -.115E+02 -.199E+04   -.119E+01 0.115E+02 0.199E+04   -.150E+00 -.782E-01 0.163E+01   -.147E-01 0.513E-02 0.150E-02
   -.125E+01 0.111E+00 0.197E+04   0.138E+01 -.421E+00 -.197E+04   -.134E+00 0.315E+00 -.195E+01   0.162E-01 -.687E-02 -.214E-01
   0.130E+02 0.975E+00 -.518E+00   -.122E+02 -.642E+00 0.639E+00   -.814E+00 -.324E+00 -.103E+00   0.647E-02 -.168E-01 -.205E-01
   -.231E+02 -.538E+01 -.198E+04   0.237E+02 0.544E+01 0.198E+04   -.619E+00 -.666E-01 0.175E+01   0.184E-01 -.237E-02 -.478E-02
   -.543E+01 -.543E+01 0.209E+01   0.476E+01 0.546E+01 -.213E+01   0.672E+00 -.236E-01 0.446E-01   0.612E-02 -.124E-01 -.122E-01
   -.597E+01 0.986E+01 -.196E+04   0.617E+01 -.101E+02 0.196E+04   -.205E+00 0.212E+00 0.196E+01   0.900E-02 -.537E-02 0.164E-01
   -.766E+01 -.506E+01 -.318E+02   0.686E+01 0.494E+01 0.313E+02   0.784E+00 0.122E+00 0.556E+00   0.784E-02 0.802E-03 -.107E-01
   0.534E+01 -.760E+01 0.200E+04   -.587E+01 0.824E+01 -.199E+04   0.535E+00 -.657E+00 -.155E+01   -.643E-04 0.248E-01 -.106E-01
   0.321E+01 0.325E+01 -.199E+01   -.325E+01 -.268E+01 0.203E+01   0.276E-01 -.580E+00 -.215E-01   0.886E-02 -.696E-02 -.191E-01
   -.167E+02 -.216E+02 -.198E+04   0.167E+02 0.222E+02 0.198E+04   -.395E-01 -.598E+00 0.137E+01   0.785E-02 0.462E-02 -.263E-02
   0.840E+01 -.345E+01 0.200E+04   -.886E+01 0.351E+01 -.200E+04   0.478E+00 -.477E-01 -.149E+01   -.188E-01 -.902E-02 -.181E-01
   -.374E+01 -.404E+01 0.251E+02   0.299E+01 0.390E+01 -.247E+02   0.751E+00 0.157E+00 -.364E+00   0.188E-02 -.177E-01 -.198E-01
   -.200E+00 -.153E+01 -.199E+04   -.985E-01 0.161E+01 0.199E+04   0.299E+00 -.745E-01 0.190E+01   -.478E-02 -.225E-02 -.228E-02
   -.567E+00 0.244E+01 0.197E+04   0.784E+00 -.278E+01 -.197E+04   -.205E+00 0.355E+00 -.109E+01   -.400E-02 -.770E-02 -.103E-01
   0.187E+02 0.199E+02 -.198E+04   -.191E+02 -.204E+02 0.197E+04   0.388E+00 0.459E+00 0.137E+01   -.712E-02 -.546E-02 0.567E-02
   -.216E+01 -.493E+01 0.158E+02   0.275E+01 0.431E+01 -.154E+02   -.567E+00 0.613E+00 -.373E+00   -.179E-01 0.999E-02 -.140E-01
   0.201E+02 0.964E+01 -.198E+04   -.203E+02 -.962E+01 0.198E+04   0.216E+00 -.293E-01 0.164E+01   -.140E-01 0.319E-02 0.174E-02
   -.508E+01 -.355E+01 -.195E+04   0.488E+01 0.351E+01 0.195E+04   0.197E+00 0.462E-01 0.190E+01   -.143E-02 -.557E-02 0.145E-01
   0.158E+00 0.101E-01 -.258E-01   0.165E-12 0.409E-12 0.477E-11   -.140E+00 -.452E-01 0.408E+00   -.152E-02 -.612E-03 -.364E+00

 POSITION                                       TOTAL-FORCE (eV/Angst)
      6.87112      7.13542     14.87632        -0.000656     -0.001169      0.003829
      5.50270      1.59892     12.22328         0.000136     -0.000378     -0.006658
      6.85821      0.78877      9.71916         0.007871      0.001580     -0.006284
      8.27626      6.36197     12.25362         0.002348      0.004539      0.006355
      6.87993      8.75848     12.24939        -0.000962      0.000734      0.007637
      8.25925      7.94329      9.61386        -0.003705     -0.002227      0.018670
      8.21918      4.74597     14.91982        -0.009434      0.001095     -0.008548
      5.47807      6.35906     12.24766        -0.007890     -0.005706      0.010558
     11.01591      7.91654      9.75747         0.007937      0.001829     -0.004196
      9.65045      8.74772     12.23761         0.000363     -0.001144     -0.000651
      9.64184      7.16287     14.80561        -0.004606      0.001436      0.002775
      9.63067      0.78576      9.76737        -0.003271     -0.002507     -0.006477
      8.24115      3.19750      9.69368         0.005040      0.001144      0.002641
      6.87661      3.96675     12.25613        -0.008625     -0.004671      0.001350
     11.04232      3.19634      9.66544         0.007015     -0.001748      0.013754
     15.09613      7.10794     14.75218        -0.005684     -0.004375      0.004530
      9.65765      3.98203     12.23605         0.003178     -0.001228      0.003034
      5.50330      7.93629      9.72489         0.004130      0.004086      0.007728
      9.60973      2.37818     14.77155        -0.004294     -0.001524      0.004294
      4.10897      5.53394      9.71379         0.001050      0.001791      0.003907
     11.03469      4.75702     14.76736         0.002670     -0.001168      0.001115
      5.50917      9.52846     14.83835         0.000986      0.005443     -0.011844
     11.01680      1.59979     12.24445        -0.001507     -0.002485     -0.006513
     13.71090      9.52553     14.69712        -0.009121      0.001510      0.003987
     12.38523      5.54719      9.92096         0.010644      0.004491     -0.007394
     11.04129      6.35918     12.27160        -0.005317      0.002238      0.002264
     13.75769      7.92290      9.91014        -0.000742      0.002917     -0.007055
      9.63737      5.56147      9.85938         0.000803     -0.001032      0.006208
      8.25817      1.58023     12.22092         0.000419     -0.004123      0.007327
      1.39483      0.80020      9.84323         0.004759      0.005774      0.005837
      5.48746      0.00928     14.61064        -0.002525     -0.002985     -0.003061
      2.75679      3.15897      9.88960         0.008111     -0.001481     -0.010303
     12.39753      3.98800     12.24827        -0.003175     -0.006533     -0.003012
      1.39030      2.37386     14.61800         0.002597     -0.002306     -0.008451
     13.75352      6.35716     12.24311         0.008050      0.001262     -0.002079
      2.75291      4.73803     14.57005         0.001919      0.000957      0.004195
     15.11380      8.73918     12.27830        -0.003412      0.001026     -0.004993
      4.10545      0.81456      9.84538         0.003848      0.006647     -0.007105
      2.75385      1.62493     12.24645        -0.004402     -0.007581     -0.002662
      2.75060      0.01352     14.62708        -0.001145      0.004685      0.002203
      5.48577      3.17807      9.84353        -0.002561     -0.003284     -0.006196
      4.09346      3.99173     12.21455         0.000426      0.003030     -0.005116
      4.11099      2.37781     14.59086        -0.004130     -0.000293     -0.004946
      6.87993      5.55263      9.85864         0.007492      0.001953      0.008680
      5.47421      4.73400     14.62292        -0.001016     -0.002804     -0.000148
     12.40682      8.72949     12.22827        -0.000436      0.003919     -0.004119
      6.84533      2.37773     14.61978        -0.003978     -0.000233     -0.005197
     12.36608      7.13973     14.58904         0.000802     -0.001100      0.000129
    total drift:                                0.016834     -0.035716      0.017943

  FREE ENERGIE OF THE ION-ELECTRON SYSTEM (eV)
  free  energy   TOTEN  =      -192.00789018 eV

  energy  without entropy=     -191.71952813  energy(sigma->0) =     -191.86370915

 d Force = 0.2328904E-03[ 0.171E-03, 0.295E-03]  d Energy = 0.2335337E-03-0.643E-06
 d Force =-0.1933931E+01[-0.194E+01,-0.193E+01]  d Ewald  =-0.1933931E+01-0.315E-07

 stress matrix after NEB project (eV)
      0.00000      0.00000      0.00000
      0.00000      0.00000      0.00000
      0.00000      0.00000      0.00000
  FORCES: max atom, RMS     0.019164    0.008770
  FORCE total and by dimension    0.060760    0.018670
  Stress total and by dimension    0.000000    0.000000
 Steepest descent step on ions:
 trial-energy change:   -0.000234  1 .order   -0.000233   -0.000295   -0.000171
  (g-gl).g = 0.295E-03      g.g   = 0.295E-03  gl.gl    = 0.000E+00
 g(Force)  = 0.295E-03   g(Stress)= 0.000E+00 ortho     = 0.000E+00
 gamma     =   0.00000
 trial     =   1.00000
 opt step  =   2.37201  (harmonic =   2.37201) maximal distance =0.00169783
 next E    =  -192.008007   (d E  =  -0.00035)

 reached required accuracy - stopping structural energy minimisation