 vasp.5.4.1 24Jun15 (build Mar 14 2019 10:18:33) complex

 executed on INTEL-19.0.2+OPENMPI date 2023.01.31  01:13:08

 INCAR:
 POTCAR:    PAW_PBE Au 04Oct2007
 POTCAR:    PAW_PBE Pd 04Jan2005
 POTCAR:    PAW_PBE Au 04Oct2007

 POTCAR:    PAW_PBE Pd 04Jan2005

 Optimization of the real space projectors (new method)

 maximal supplied QI-value         = 15.12
 optimisation between [QCUT,QGAM] = [ 10.13, 20.41] = [ 28.73,116.64] Ry
 Optimized for a Real-space Cutoff    1.51 Angstroem

   l    n(q)    QCUT    max X(q) W(low)/X(q) W(high)/X(q)  e(spline)
   2      8    10.129    60.898    0.46E-03    0.46E-03    0.14E-06
   2      8    10.129    58.894    0.47E-03    0.47E-03    0.14E-06
   0      9    10.129   109.617    0.16E-03    0.11E-03    0.54E-07
   0      9    10.129    75.026    0.15E-03    0.11E-03    0.52E-07
   1      9    10.129    16.344    0.96E-04    0.15E-03    0.14E-06
   1      9    10.129    10.160    0.81E-04    0.12E-03    0.11E-06
 Optimization of the real space projectors (new method)

 maximal supplied QI-value         = 14.36
 optimisation between [QCUT,QGAM] = [ 10.20, 20.39] = [ 29.12,116.47] Ry
 Optimized for a Real-space Cutoff    1.51 Angstroem

   l    n(q)    QCUT    max X(q) W(low)/X(q) W(high)/X(q)  e(spline)
   2      8    10.197    59.108    0.26E-03    0.14E-03    0.96E-07
   2      8    10.197    58.101    0.27E-03    0.14E-03    0.98E-07
   0      9    10.197   102.235    0.54E-04    0.60E-05    0.72E-07
   0      9    10.197    58.388    0.52E-04    0.60E-05    0.68E-07
   1      9    10.197    22.191    0.18E-03    0.25E-03    0.79E-07
   1      9    10.197    15.590    0.15E-03    0.21E-03    0.69E-07
  PAW_PBE Au 04Oct2007                  :
  PAW_PBE Pd 04Jan2005                  :

 POSCAR: Au Pd
  positions in cartesian coordinates
 exchange correlation table for  LEXCH =        8
   RHO(1)=    0.500       N(1)  =     2000
   RHO(2)=  100.500       N(2)  =     4000

 VTST: version 3.2, (02/03/18)

 CHAIN: initializing optimizer

 OPT: Using VASP Conjugate-Gradient optimizer
 CHAIN: Read ICHAIN            0

 POSCAR: Au Pd
  positions in cartesian coordinates

 ion  position               nearest neighbor table
   1  0.750  0.750  0.592-  33 2.75  31 2.75   3 2.75  21 2.75  36 2.75  40 2.75  19 2.75  30 2.75
                            44 2.75
   2  0.083  0.833  0.408-  18 2.75  27 2.75  32 2.75  39 2.75  43 2.75  42 2.75  25 2.75  17 2.75
                            13 2.75
   3  0.000  0.500  0.592-  31 2.75  14 2.75   1 2.75  15 2.75  30 2.75   6 2.75  26 2.75  36 2.75
                             7 2.75
   4  0.417  0.667  0.500-  27 2.75  41 2.75  48 2.75  18 2.75  37 2.75  20 2.75  24 2.75  44 2.75
                            17 2.75  25 2.75  46 2.75  19 2.75
   5  0.750  0.250  0.592-  24 2.75   9 2.75   8 2.75  36 2.75  40 2.75  41 2.75   6 2.75  38 2.75
                            45 2.75
   6  0.000  0.250  0.592-   7 2.75  12 2.75   8 2.75   3 2.75  28 2.75  36 2.75   5 2.75  15 2.75
                             9 2.75
   7  0.917  0.417  0.500-  16 2.75   6 2.75  36 2.75   9 2.75  31 2.75  12 2.75  44 2.75  24 2.75
                            14 2.75  10 2.75  29 2.75   3 2.75
   8  0.000  0.000  0.592-   9 2.75  18 2.75   5 2.75   6 2.75  30 2.75  48 2.75  40 2.75  28 2.75
                            13 2.75
   9  0.917  0.167  0.500-  43 2.75   8 2.75   5 2.75  13 2.75  18 2.75  24 2.75   7 2.75  12 2.75
                            45 2.75  16 2.75   6 2.75  39 2.75
  10  0.833  0.583  0.408-  31 2.75  23 2.75  29 2.75  16 2.75  42 2.75  32 2.75  46 2.75   7 2.75
                            44 2.75
  11  0.333  0.333  0.408-  37 2.75  32 2.75  34 2.75  35 2.75  27 2.75  22 2.75  29 2.75  47 2.75
                            14 2.75
  12  0.167  0.167  0.500-  39 2.75  28 2.75   6 2.75  18 2.75  20 2.75   7 2.75  14 2.75   9 2.75
                            47 2.75  29 2.75  15 2.75  34 2.75
  13  0.917  0.917  0.500-  42 2.75  30 2.75  40 2.75  31 2.75  17 2.75   9 2.75  45 2.75  33 2.75
                            18 2.75  43 2.75   2 2.75   8 2.75
  14  0.167  0.417  0.500-  29 2.75  15 2.75   3 2.75  17 2.75  12 2.75  31 2.75  47 2.75  37 2.75
                             7 2.75  32 2.75  26 2.75  11 2.75
  15  0.250  0.250  0.592-  14 2.75  47 2.75  21 2.75  26 2.75  28 2.75   3 2.75  38 2.75   6 2.75
                            12 2.75
  16  0.833  0.333  0.408-   7 2.75  10 2.75  39 2.75  43 2.75  46 2.75  29 2.75  22 2.75   9 2.75
                            24 2.75
  17  0.167  0.667  0.500-  32 2.75  26 2.75  30 2.75  13 2.75  14 2.75  18 2.75  37 2.75   4 2.75
                            31 2.75   2 2.75  27 2.75  48 2.75
  18  0.167  0.917  0.500-   2 2.75  48 2.75   8 2.75   9 2.75  12 2.75  17 2.75   4 2.75  20 2.75
                            13 2.75  39 2.75  25 2.75  28 2.75
  19  0.500  0.750  0.592-  20 2.75  44 2.75  28 2.75  36 2.75  41 2.75  21 2.75   1 2.75  48 2.75
                             4 2.75
  20  0.417  0.917  0.500-  25 2.75  19 2.75  28 2.75  12 2.75   4 2.75  44 2.75  47 2.75  18 2.75
                            33 2.75  34 2.75  21 2.75  23 2.75
  21  0.500  0.000  0.592-  47 2.75  33 2.75  19 2.75   1 2.75  38 2.75  15 2.75  40 2.75  28 2.75
                            20 2.75
  22  0.583  0.333  0.408-  24 2.75  27 2.75  35 2.75  43 2.75  46 2.75  16 2.75  11 2.75  45 2.75
                            37 2.75
  23  0.583  0.833  0.408-  33 2.75  10 2.75  34 2.75  35 2.75  46 2.75  42 2.75  25 2.75  44 2.75
                            20 2.75
  24  0.667  0.417  0.500-  22 2.75   5 2.75  41 2.75   4 2.75   9 2.75  44 2.75  45 2.75  37 2.75
                             7 2.75  46 2.75  36 2.75  16 2.75
  25  0.333  0.833  0.408-  20 2.75  27 2.75  34 2.75  39 2.75  46 2.75   2 2.75  23 2.75   4 2.75
                            18 2.75
  26  0.250  0.500  0.592-  17 2.75  37 2.75  30 2.75  15 2.75  38 2.75  48 2.75  41 2.75   3 2.75
                            14 2.75
  27  0.333  0.583  0.408-   4 2.75   2 2.75  11 2.75  22 2.75  25 2.75  32 2.75  46 2.75  37 2.75
                            17 2.75
  28  0.250  0.000  0.592-  12 2.75  20 2.75  15 2.75  19 2.75   6 2.75  48 2.75  21 2.75   8 2.75
                            18 2.75
  29  0.083  0.333  0.408-  14 2.75  10 2.75  32 2.75  34 2.75  39 2.75  16 2.75  11 2.75  12 2.75
                             7 2.75
  30  0.000  0.750  0.592-  13 2.75  17 2.75   3 2.75   8 2.75  26 2.75  40 2.75   1 2.75  48 2.75
                            31 2.75
  31  0.917  0.667  0.500-  10 2.75   3 2.75   1 2.75   7 2.75  13 2.75  14 2.75  33 2.75  17 2.75
                            44 2.75  42 2.75  32 2.75  30 2.75
  32  0.083  0.583  0.408-  17 2.75  11 2.75   2 2.75  29 2.75  42 2.75  10 2.75  27 2.75  14 2.75
                            31 2.75
  33  0.667  0.917  0.500-  23 2.75   1 2.75  21 2.75  31 2.75  44 2.75  45 2.75  47 2.75  13 2.75
                            20 2.75  35 2.75  42 2.75  40 2.75
  34  0.333  0.083  0.408-  47 2.75  23 2.75  25 2.75  29 2.75  11 2.75  39 2.75  35 2.75  20 2.75
                            12 2.75
  35  0.583  0.083  0.408-  45 2.75  22 2.75  23 2.75  42 2.75  11 2.75  43 2.75  34 2.75  33 2.75
                            47 2.75
  36  0.750  0.500  0.592-  44 2.75   7 2.75   6 2.75   1 2.75  19 2.75   5 2.75  41 2.75   3 2.75
                            24 2.75
  37  0.417  0.417  0.500-  11 2.75  38 2.75  26 2.75   4 2.75  17 2.75  45 2.75  47 2.75  14 2.75
                            24 2.75  27 2.75  22 2.75  41 2.75
  38  0.500  0.250  0.592-  37 2.75  45 2.75  21 2.75  40 2.75  41 2.75  26 2.75   5 2.75  15 2.75
                            47 2.75
  39  0.083  0.083  0.408-  12 2.75   2 2.75  16 2.75  25 2.75  29 2.75  34 2.75  43 2.75  18 2.75
                             9 2.75
  40  0.750  0.000  0.592-  45 2.75  13 2.75   1 2.75  30 2.75  38 2.75   5 2.75  21 2.75   8 2.75
                            33 2.75
  41  0.500  0.500  0.592-   4 2.75  24 2.75  19 2.75   5 2.75  38 2.75  48 2.75  26 2.75  36 2.75
                            37 2.75
  42  0.833  0.833  0.408-  13 2.75  10 2.75  32 2.75  35 2.75  43 2.75  23 2.75   2 2.75  31 2.75
                            33 2.75
  43  0.833  0.083  0.408-   9 2.75   2 2.75  16 2.75  22 2.75  42 2.75  39 2.75  35 2.75  13 2.75
                            45 2.75
  44  0.667  0.667  0.500-  46 2.75  36 2.75  19 2.75  24 2.75  33 2.75   7 2.75  20 2.75  31 2.75
                             4 2.75  23 2.75   1 2.75  10 2.75
  45  0.667  0.167  0.500-  35 2.75  40 2.75  38 2.75  13 2.75  37 2.75  24 2.75  33 2.75   9 2.75
                            47 2.75  22 2.75  43 2.75   5 2.75
  46  0.583  0.583  0.408-  44 2.75  22 2.75  23 2.75  25 2.75  16 2.75  27 2.75  10 2.75  24 2.75
                             4 2.75
  47  0.417  0.167  0.500-  34 2.75  21 2.75  15 2.75  14 2.75  33 2.75  20 2.75  37 2.75  12 2.75
                            45 2.75  11 2.75  38 2.75  35 2.75
  48  0.250  0.750  0.592-  18 2.75   4 2.75   8 2.75  26 2.75  28 2.75  41 2.75  30 2.75  19 2.75
                            17 2.75

  LATTYP: Found a hexagonal cell.
 ALAT       =    11.0025815153
 C/A-ratio  =     2.2260035120

  Lattice vectors:

 A1 = (   5.5012907576,  -9.5285150994,   0.0000000000)
 A2 = ( -11.0025815153,   0.0000000000,   0.0000000000)
 A3 = (   0.0000000000,   0.0000000000, -24.4917850943)

Analysis of symmetry for initial positions (statically):
 Subroutine PRICEL returns:
 Original cell was already a primitive cell.

 Routine SETGRP: Setting up the symmetry group for a
 hexagonal supercell.

 Subroutine GETGRP returns: Found  1 space group operations
 (whereof  1 operations were pure point group operations)
 out of a pool of 24 trial point group operations.

The static configuration has the point symmetry C_1 .

Analysis of symmetry for dynamics (positions and initial velocities):
 Subroutine PRICEL returns:
 Original cell was already a primitive cell.

[...]

The dynamic configuration has the point symmetry C_1 .

Analysis of constrained symmetry for selective dynamics:
 Subroutine PRICEL returns:
 Original cell was already a primitive cell.

 Routine SETGRP: Setting up the symmetry group for a
 hexagonal supercell.

 Subroutine GETGRP returns: Found  1 space group operations
 (whereof  1 operations were pure point group operations)
 out of a pool of 24 trial point group operations.

The constrained configuration has the point symmetry C_1 .

 KPOINTS: Automatic mesh

Automatic generation of k-mesh.
Space group operators:
 irot       det(A)        alpha          n_x          n_y          n_z        tau_x        tau_y        tau_z
    1     1.000000     0.000000     1.000000     0.000000     0.000000     0.000000     0.000000     0.000000

 Subroutine IBZKPT returns following result:

 Found      6 irreducible k-points:

 Following reciprocal coordinates:
            Coordinates               Weight
  0.250000  0.250000  0.000000     16.000000
  0.000000  0.250000  0.000000     16.000000
 -0.250000  0.000000  0.000000     16.000000
 -0.250000  0.250000  0.000000     16.000000
  0.500000 -0.250000  0.000000     16.000000
[...]
 dipolmoment           0.000000      0.000000      0.017049 electrons x Angstroem
 Tr[quadrupol]    -10252.599937

 energy correction for charged system         0.000000 eV
 dipol+quadrupol energy correction           -0.000010 eV
 added-field ion interaction         -0.131966 eV  (added to PSCEN)

  free energy =  -0.191664401359E+03  energy without entropy=  -0.191459055982E+03

 average (electrostatic) potential at core
  the test charge radii are     1.2098  1.1199
  (the norm of the test charge is              1.0000)
       1 -73.9673       2 -73.9454       3 -73.9435       4 -74.1677       5 -73.9321
       6 -73.9714       7 -74.2357       8 -73.9006       9 -74.2184      10 -73.9709
      11 -73.9004      12 -74.2363      13 -74.1635      14 -74.2162      15 -73.9687
      16 -74.0242      17 -74.1968      18 -74.2860      19 -73.8931      20 -74.1737
      21 -73.9549      22 -73.9639      23 -73.9430      24 -74.2131      25 -80.7715
      26 -80.8024      27 -80.7614      28 -80.7888      29 -80.8400      30 -80.8538
      31 -80.8808      32 -80.7564      33 -80.9335      34 -80.7967      35 -80.7293
      36 -80.8067      37 -80.8967      38 -80.8726      39 -80.8089      40 -80.8125
      41 -80.7893      42 -80.7441      43 -80.8071      44 -80.8542      45 -80.8997
      46 -80.7740      47 -80.8942      48 -80.8231

 E-fermi :  -1.0918     XC(G=0):  -4.5496     alpha+bet : -4.5214

[...]

 k-point     6 :      -0.2500    0.5000    0.0000
  band No.  band energies     occupation
      1      -8.7701      2.00000
      2      -8.3018      2.00000
      3      -7.9479      2.00000
      4      -7.3983      2.00000
      5      -7.2678      2.00000
      6      -7.2246      2.00000
      7      -7.1096      2.00000
      8      -7.0687      2.00000
      9      -7.0077      2.00000
     10      -6.9798      2.00000
     11      -6.9079      2.00000
     12      -6.8200      2.00000
     13      -6.7508      2.00000
     14      -6.6787      2.00000
     15      -6.6395      2.00000
     16      -6.6147      2.00000
     17      -6.5724      2.00000
     18      -6.5320      2.00000
     19      -6.5070      2.00000
     20      -6.4485      2.00000
     21      -6.4062      2.00000
     22      -6.3902      2.00000
     23      -6.3425      2.00000
     24      -6.3206      2.00000
     25      -6.3048      2.00000
     26      -6.2928      2.00000
     27      -6.2667      2.00000
     28      -6.2296      2.00000
     29      -6.2047      2.00000
     30      -6.1784      2.00000
     31      -6.1394      2.00000
     32      -6.1299      2.00000
     33      -6.1059      2.00000
     34      -6.0876      2.00000
     35      -6.0692      2.00000
     36      -6.0374      2.00000
     37      -6.0278      2.00000
     38      -5.9919      2.00000
     39      -5.9777      2.00000
     40      -5.9470      2.00000
     41      -5.9236      2.00000
     42      -5.8754      2.00000
     43      -5.8441      2.00000
     44      -5.8065      2.00000
     45      -5.7966      2.00000
     46      -5.7597      2.00000
     47      -5.7236      2.00000
     48      -5.7051      2.00000
     49      -5.6713      2.00000
     50      -5.6407      2.00000
     51      -5.6261      2.00000
     52      -5.5750      2.00000
     53      -5.5568      2.00000
     54      -5.5331      2.00000
     55      -5.5251      2.00000
     56      -5.4840      2.00000
     57      -5.4363      2.00000
     58      -5.4202      2.00000
     59      -5.3806      2.00000
     60      -5.3367      2.00000
[...]
    292       4.2033      0.00000
    293       4.4600      0.00000
    294       4.5736      0.00000
    295       4.6136      0.00000
    296       4.6350      0.00000
    297       4.7717      0.00000
    298       4.8325      0.00000
    299       4.8876      0.00000
    300       4.9271      0.00000
    301       4.9856      0.00000
    302       4.9972      0.00000
    303       5.0649      0.00000
    304       5.0948      0.00000
    305       5.2244      0.00000
    306       5.2502      0.00000

 soft charge-density along one line, spin component           1
         0         1         2         3         4         5         6         7         8         9
 total charge-density along one line

------------------------ aborting loop because EDIFF is reached ----------------------------------------

 VOLUME and BASIS-vectors are now :
  energy-cutoff  :      400.00
  volume of cell :     2567.68
      direct lattice vectors                 reciprocal lattice vectors
    11.002581515  0.000000000  0.000000000     0.090887761 -0.052474073  0.000000000
     5.501290758  9.528515099  0.000000000     0.000000000  0.104948147  0.000000000
     0.000000000  0.000000000 24.491785094     0.000000000  0.000000000  0.040830017

  length of vectors
    11.002581515 11.002581515 24.491785094     0.104948147  0.104948147  0.040830017

 FORCES acting on ions
    electron-ion (+dipol)            ewald-force                    non-local-force                 convergence-correction
   -.557E+01 -.114E+02 -.221E+04   0.614E+01 0.113E+02 0.221E+04   -.561E+00 0.113E+00 0.703E+00   -.949E-02 0.441E-02 -.616E-02
   -.961E+00 -.387E+01 0.225E+04   0.989E+00 0.384E+01 -.225E+04   -.420E-01 0.191E-01 0.182E+00   0.113E-01 0.112E-01 -.670E-02
   -.132E+02 -.154E+02 -.229E+04   0.134E+02 0.161E+02 0.229E+04   -.238E+00 -.692E+00 -.424E-01   -.378E-02 -.515E-02 0.799E-02
   -.735E+01 -.562E+01 0.470E+02   0.751E+01 0.503E+01 -.477E+02   -.162E+00 0.584E+00 0.654E+00   0.263E-02 0.392E-02 0.137E-01
   0.245E+02 -.110E+01 -.228E+04   -.255E+02 0.133E+01 0.228E+04   0.984E+00 -.238E+00 0.431E-01   -.662E-02 0.942E-02 0.133E-01
   -.263E+01 0.249E+01 -.231E+04   0.266E+01 -.264E+01 0.231E+04   -.384E-01 0.156E+00 -.302E+00   0.454E-02 -.389E-02 -.147E-01
   -.899E+01 0.634E+01 -.496E+02   0.895E+01 -.543E+01 0.499E+02   0.432E-01 -.883E+00 -.244E+00   0.456E-02 -.160E-01 -.230E-01
   0.895E+01 0.196E+02 -.231E+04   -.883E+01 -.205E+02 0.231E+04   -.135E+00 0.907E+00 -.120E+00   0.121E-01 0.471E-02 0.349E-01
   -.721E+01 0.981E+00 -.231E+02   0.663E+01 -.126E+01 0.219E+02   0.565E+00 0.284E+00 0.113E+01   0.172E-01 -.108E-01 0.534E-02
   -.108E+02 -.126E+01 0.222E+04   0.115E+02 0.159E+01 -.222E+04   -.432E+00 -.238E+00 -.252E+00   -.230E-02 -.112E-01 -.114E-01
   0.122E+02 0.525E+01 0.224E+04   -.124E+02 -.540E+01 -.224E+04   0.133E+00 0.101E+00 -.238E+00   -.100E-01 -.911E-02 -.101E-01
   0.303E+01 -.778E+01 0.279E+02   -.261E+01 0.769E+01 -.289E+02   -.418E+00 0.944E-01 0.105E+01   -.399E-02 -.739E-02 -.162E-01
   -.457E+01 -.579E+01 0.304E+02   0.299E+01 0.592E+01 -.304E+02   0.155E+01 -.149E+00 -.778E-02   0.248E-01 0.219E-01 -.838E-02
   0.115E+02 0.722E+01 0.478E+01   -.111E+02 -.698E+01 -.527E+01   -.378E+00 -.223E+00 0.477E+00   -.508E-02 -.103E-01 0.104E-01
   -.204E+02 0.170E+01 -.225E+04   0.210E+02 -.187E+01 0.225E+04   -.657E+00 0.179E+00 -.419E-01   0.134E-02 -.743E-02 0.246E-01
   -.106E+02 0.927E+01 0.223E+04   0.108E+02 -.962E+01 -.223E+04   -.129E+00 0.202E+00 0.514E+00   0.928E-02 -.576E-02 -.365E-02
   0.405E+01 -.139E+01 0.265E+02   -.438E+01 0.613E+00 -.259E+02   0.314E+00 0.782E+00 -.605E+00   0.130E-01 -.623E-03 0.581E-02
   0.553E+01 -.110E+02 -.574E+01   -.504E+01 0.112E+02 0.594E+01   -.495E+00 -.151E+00 -.210E+00   -.103E-02 0.164E-01 -.427E-02
   0.672E+01 0.157E+01 -.227E+04   -.748E+01 -.219E+01 0.227E+04   0.760E+00 0.606E+00 -.739E-04   0.748E-02 0.736E-02 0.502E-01
   -.712E+01 0.740E-01 0.173E+02   0.772E+01 0.220E+00 -.178E+02   -.612E+00 -.306E+00 0.473E+00   0.146E-01 0.154E-01 0.977E-02
   -.107E+02 -.405E+01 -.223E+04   0.111E+02 0.466E+01 0.223E+04   -.391E+00 -.621E+00 0.317E+00   -.469E-02 0.557E-02 0.210E-01
   0.206E+00 0.314E+01 0.223E+04   -.389E+00 -.328E+01 -.223E+04   0.153E+00 0.121E+00 -.401E+00   0.437E-02 -.140E-02 -.706E-02
   0.103E+01 -.782E+01 0.223E+04   -.100E+01 0.817E+01 -.223E+04   -.872E-02 -.234E+00 -.544E+00   -.131E-01 0.847E-02 -.963E-02
   -.564E+01 0.732E+01 -.286E+02   0.520E+01 -.678E+01 0.294E+02   0.417E+00 -.527E+00 -.717E+00   0.894E-02 -.949E-02 -.166E-02
   -.196E-01 -.661E+01 0.205E+04   0.340E-01 0.651E+01 -.204E+04   -.975E-02 0.996E-01 -.133E+01   0.122E-03 0.146E-01 -.973E-02
   -.140E+02 -.369E+01 -.199E+04   0.144E+02 0.372E+01 0.199E+04   -.425E+00 -.231E-01 0.161E+01   -.538E-03 -.806E-02 0.178E-01
   -.243E+01 -.630E+01 0.204E+04   0.252E+01 0.637E+01 -.204E+04   -.361E-01 0.210E-01 -.155E+01   0.212E-02 0.448E-02 -.970E-02
   -.481E+01 0.936E+01 -.198E+04   0.458E+01 -.948E+01 0.198E+04   0.241E+00 0.116E+00 0.102E+01   -.691E-02 0.383E-02 0.357E-01
   -.171E+01 0.721E+01 0.204E+04   0.185E+01 -.744E+01 -.204E+04   -.126E+00 0.180E+00 -.137E+01   -.339E-02 -.136E-01 -.419E-02
   -.301E+01 0.123E+01 -.197E+04   0.315E+01 -.123E+01 0.196E+04   -.144E+00 -.518E-02 0.142E+01   0.693E-02 0.969E-02 0.112E-01
   0.591E+01 0.528E+01 0.173E+02   -.609E+01 -.477E+01 -.176E+02   0.172E+00 -.505E+00 0.306E+00   0.399E-02 -.719E-02 0.375E-02
   0.731E+01 -.669E+00 0.204E+04   -.742E+01 0.823E+00 -.204E+04   0.600E-01 -.119E+00 -.150E+01   -.101E-02 -.636E-02 -.113E-01
   0.507E+01 0.332E+00 0.323E+02   -.462E+01 -.587E-01 -.326E+02   -.431E+00 -.282E+00 0.316E+00   -.224E-01 0.126E-01 0.150E-01
   0.745E+01 -.109E+01 0.204E+04   -.740E+01 0.123E+01 -.204E+04   -.123E+00 -.104E+00 -.155E+01   -.117E-01 -.370E-03 -.470E-02
   -.221E+01 0.111E+02 0.203E+04   0.233E+01 -.114E+02 -.203E+04   -.204E-01 0.839E-01 -.188E+01   -.964E-02 0.208E-02 -.435E-02
   0.111E+02 -.106E+02 -.200E+04   -.113E+02 0.107E+02 0.199E+04   0.131E+00 -.714E-01 0.152E+01   -.103E-01 -.682E-02 0.833E-02
   0.308E+01 0.350E+01 0.195E+02   -.305E+01 -.396E+01 -.186E+02   -.317E-01 0.447E+00 -.815E+00   0.407E-02 -.118E-02 -.765E-02
   -.530E+00 -.259E+01 -.194E+04   0.689E+00 0.281E+01 0.194E+04   -.170E+00 -.222E+00 0.196E+01   0.108E-01 -.139E-02 -.372E-01
   -.951E+01 -.297E+00 0.204E+04   0.974E+01 0.261E+00 -.204E+04   -.102E+00 0.252E-01 -.128E+01   0.104E-01 0.595E-03 -.249E-02
   0.771E+01 -.605E+00 -.195E+04   -.783E+01 0.688E+00 0.195E+04   0.111E+00 -.923E-01 0.147E+01   0.277E-02 0.104E-01 -.226E-02
   0.156E+02 -.136E+01 -.200E+04   -.159E+02 0.129E+01 0.200E+04   0.376E+00 0.723E-01 0.151E+01   0.120E-01 -.128E-01 -.437E-02
   0.491E+00 -.567E+01 0.204E+04   -.519E+00 0.577E+01 -.204E+04   0.388E-01 -.156E-01 -.168E+01   0.137E-02 0.208E-02 -.110E-01
   0.436E+01 0.740E+01 0.204E+04   -.476E+01 -.760E+01 -.204E+04   0.264E+00 0.908E-01 -.163E+01   0.107E-01 0.225E-02 -.236E-02
   -.343E+01 -.528E+01 -.960E+01   0.376E+01 0.523E+01 0.963E+01   -.341E+00 0.441E-01 -.404E-01   0.294E-02 0.242E-02 0.158E-02
   -.201E+01 0.405E+01 0.362E+02   0.122E+01 -.437E+01 -.362E+02   0.776E+00 0.322E+00 -.866E-02   0.577E-02 -.347E-02 -.568E-02
   0.560E+01 -.956E+01 0.203E+04   -.596E+01 0.990E+01 -.203E+04   0.174E+00 -.208E+00 -.147E+01   0.647E-03 0.147E-02 -.100E-01
   0.574E+01 0.385E+01 0.252E+02   -.487E+01 -.396E+01 -.255E+02   -.870E+00 0.137E+00 0.305E+00   -.499E-03 -.215E-01 0.676E-02
   0.233E+01 0.125E+02 -.199E+04   -.242E+01 -.127E+02 0.199E+04   0.899E-01 0.110E+00 0.133E+01   0.424E-02 0.159E-01 0.236E-01
   0.800E-01 0.504E-03 0.146E+01   -.350E-12 0.679E-12 -.296E-11   -.175E+00 -.140E-01 -.151E+01   0.885E-01 0.982E-02 0.708E-01

 POSITION                                       TOTAL-FORCE (eV/Angst)
     12.38980      7.14545     14.90416        -0.003211      0.000094      0.002667
      5.50129      7.94043     10.00000        -0.002142     -0.002140     -0.406365
      2.77288      4.78173     15.03865        -0.004808     -0.003335      0.004383
      8.25535      6.33795     12.40235        -0.005690      0.000714     -0.004693
      9.59328      2.38112     15.00605        -0.000529     -0.000848      0.004659
      1.37110      2.37126     15.10153         0.000843      0.000556      0.004167
     12.37837      3.99481     12.51176         0.002038      0.007628     -0.000102
     -0.00533     -0.03325     15.07113        -0.002818      0.000886     -0.002237
     10.97216      1.58191     12.46566        -0.000379     -0.003587     -0.006756
     12.37790      5.55830     10.00000         0.237515      0.078004     -0.141548
      5.50129      3.17617     10.00000        -0.130123     -0.053156     -0.248290
      2.76267      1.59573     12.41523        -0.003422     -0.002768     -0.005491
     15.07499      8.74039     12.42016        -0.005749      0.001996      0.004844
      4.13321      3.97465     12.44485        -0.004642     -0.001204     -0.003766
      4.14702      2.38378     14.99055        -0.001007     -0.003077     -0.000411
     11.00258      3.17617     10.00000         0.105963     -0.155735     -0.317163
      5.48612      6.32936     12.43138        -0.001600      0.001866      0.006602
      6.87383      8.73767     12.46152        -0.005816      0.004070     -0.010013
      9.59792      7.12165     14.98337        -0.000033     -0.004630     -0.004433
      9.64717      8.74255     12.43139         0.003169      0.003734     -0.003185
      5.51358      0.00874     14.92799        -0.000374     -0.001900      0.004799
      8.25194      3.17617     10.00000        -0.025136     -0.018303     -0.206652
     11.00258      7.94043     10.00000         0.000430      0.127368     -0.159662
      9.60950      3.98005     12.49390        -0.007803     -0.001838     -0.003341
      8.25194      7.94043     10.00000         0.004926      0.008018      0.100284
      5.52643      4.76929     14.82947        -0.003912      0.002780     -0.001803
      6.87661      5.55830     10.00000         0.052505      0.092286      0.075098
      2.74437     -0.00799     14.86275         0.000314      0.000293     -0.004977
      2.75065      3.17617     10.00000         0.015516     -0.063621      0.240449
      4.13900      7.14648     14.80986        -0.003783     -0.001891     -0.004479
     13.72741      6.36966     12.43984        -0.000989      0.004906     -0.005919
      4.12597      5.55830     10.00000        -0.051408      0.028503      0.120316
     12.37335      8.74117     12.42040        -0.005956      0.003134     -0.001255
      4.12597      0.79404     10.00000        -0.085418      0.029773      0.126833
      6.87661      0.79404     10.00000         0.087930     -0.155550      0.216976
     10.99429      4.75670     14.88042        -0.002098      0.000711      0.002499
      6.87586      3.94710     12.43370         0.000978     -0.005434      0.004088
      6.88104      2.39032     14.77013        -0.000521     -0.003511     -0.006972
      1.37532      0.79404     10.00000         0.140298     -0.009928      0.160383
      8.25395      0.00445     14.79243        -0.001483      0.000547     -0.005044
      8.22815      4.75902     14.84244         0.002994     -0.002571      0.001363
     13.75323      7.94043     10.00000         0.012849      0.086805      0.152534
      9.62726      0.79404     10.00000        -0.123165     -0.104470      0.147738
     11.00894      6.36871     12.47029        -0.000342     -0.001776     -0.004730
      8.21911      1.58981     12.41236        -0.003778     -0.005075      0.005939
      9.62726      5.55830     10.00000        -0.177938      0.126855      0.175773
      5.52693      1.57951     12.42341        -0.002109      0.000090     -0.001295
      6.86739      7.13246     14.83715        -0.000087     -0.005269     -0.001814
    total drift:                               -0.006530     -0.003632      0.016173

  FREE ENERGIE OF THE ION-ELECTRON SYSTEM (eV)
  free  energy   TOTEN  =      -191.66440136 eV

  energy  without entropy=     -191.45905598  energy(sigma->0) =     -191.56172867

 d Force = 0.3126569E-03[ 0.738E-04, 0.552E-03]  d Energy = 0.3077033E-03 0.495E-05
 d Force =-0.1443465E+02[-0.144E+02,-0.145E+02]  d Ewald  =-0.1443466E+02 0.574E-05

 stress matrix after NEB project (eV)
      0.00000      0.00000      0.00000
      0.00000      0.00000      0.00000
      0.00000      0.00000      0.00000
  FORCES: max atom, RMS     0.012274    0.005276
  FORCE total and by dimension    0.036556    0.010013
  Stress total and by dimension    0.000000    0.000000
 Conjugate gradient step on ions:
 trial-energy change:   -0.000308  1 .order   -0.000313   -0.000552   -0.000074
  (g-gl).g = 0.253E-03      g.g   = 0.224E-03  gl.gl    = 0.303E-03
 g(Force)  = 0.224E-03   g(Stress)= 0.000E+00 ortho     =-0.155E-05
 gamma     =   0.83364
 trial     =   2.47325
 opt step  =   2.88532  (harmonic =   2.85541) maximal distance =0.00461722
 next E    =  -191.664407   (d E  =  -0.00031)

 reached required accuracy - stopping structural energy minimisation