 vasp.5.4.1 24Jun15 (build Mar 14 2019 10:18:33) complex

 executed on INTEL-19.0.2+OPENMPI date 2023.01.24  11:29:51

 INCAR:
 POTCAR:    PAW_PBE Au 04Oct2007
 POTCAR:    PAW_PBE O 08Apr2002
 POTCAR:    PAW_PBE Pd 04Jan2005
 POTCAR:    PAW_PBE Au 04Oct2007

 POTCAR:    PAW_PBE O 08Apr2002

 POTCAR:    PAW_PBE Pd 04Jan2005

 Optimization of the real space projectors (new method)

 maximal supplied QI-value         = 15.12
 optimisation between [QCUT,QGAM] = [ 10.13, 20.41] = [ 28.73,116.64] Ry
 Optimized for a Real-space Cutoff    1.51 Angstroem

   l    n(q)    QCUT    max X(q) W(low)/X(q) W(high)/X(q)  e(spline)
   2      8    10.129    60.898    0.46E-03    0.46E-03    0.14E-06
   2      8    10.129    58.894    0.47E-03    0.47E-03    0.14E-06
   0      9    10.129   109.617    0.16E-03    0.11E-03    0.54E-07
   0      9    10.129    75.026    0.15E-03    0.11E-03    0.52E-07
   1      9    10.129    16.344    0.96E-04    0.15E-03    0.14E-06
   1      9    10.129    10.160    0.81E-04    0.12E-03    0.11E-06
 Optimization of the real space projectors (new method)

[...]

   l    n(q)    QCUT    max X(q) W(low)/X(q) W(high)/X(q)  e(spline)
   0      8    10.150    20.381    0.22E-03    0.32E-03    0.29E-06
   0      8    10.150    15.268    0.23E-03    0.35E-03    0.30E-06
   1      8    10.150     5.964    0.46E-03    0.53E-03    0.21E-06
   1      8    10.150     5.382    0.38E-03    0.45E-03    0.19E-06
 Optimization of the real space projectors (new method)

 maximal supplied QI-value         = 14.36
 optimisation between [QCUT,QGAM] = [ 10.20, 20.39] = [ 29.12,116.47] Ry
 Optimized for a Real-space Cutoff    1.51 Angstroem

   l    n(q)    QCUT    max X(q) W(low)/X(q) W(high)/X(q)  e(spline)
   2      8    10.197    59.108    0.26E-03    0.14E-03    0.96E-07
   2      8    10.197    58.101    0.27E-03    0.14E-03    0.98E-07
   0      9    10.197   102.235    0.54E-04    0.60E-05    0.72E-07
   0      9    10.197    58.388    0.52E-04    0.60E-05    0.68E-07
   1      9    10.197    22.191    0.18E-03    0.25E-03    0.79E-07
   1      9    10.197    15.590    0.15E-03    0.21E-03    0.69E-07
  PAW_PBE Au 04Oct2007                  :
  PAW_PBE O 08Apr2002                   :
  PAW_PBE Pd 04Jan2005                  :

 POSCAR: Au  O Pd
  positions in direct lattice
  velocities in cartesian coordinates
 exchange correlation table for  LEXCH =        8
   RHO(1)=    0.500       N(1)  =     2000
   RHO(2)=  100.500       N(2)  =     4000

 VTST: version 3.2, (02/03/18)

 CHAIN: initializing optimizer

 OPT: Using VASP Conjugate-Gradient optimizer
 CHAIN: Read ICHAIN            0

 POSCAR: Au  O Pd
  positions in direct lattice
  velocities in cartesian coordinates

 ion  position               nearest neighbor table
   1  0.333  0.833  0.382-  10 2.75  12 2.75  17 2.75  56 2.75  47 2.75  36 2.75  15 2.89  51 2.93
                            53 3.02
   2  0.913  0.919  0.474-  37 2.76  39 2.76  48 2.76  18 2.76  15 2.77  33 2.78   4 2.78  49 2.80
                            46 2.88   7 2.89  36 2.91  19 3.02
   3  0.083  0.583  0.382-   5 2.75   7 2.75  34 2.75  36 2.75   9 2.75  12 2.75  37 2.86  13 2.93
                            39 2.95
   4  0.660  0.919  0.475-  51 2.73  14 2.75  16 2.75  18 2.76   2 2.78  39 2.78  41 2.85  47 2.90
                            42 2.90   7 2.95  43 3.03  19 3.11
   5  0.083  0.333  0.382-   3 2.75   9 2.75  10 2.75  56 2.75  34 2.75  21 2.75  52 2.89  13 2.94
                             6 3.06
   6  0.914  0.418  0.481-  48 2.74  39 2.74  52 2.75  13 2.75  14 2.78  22 2.81  20 2.83  38 2.91
                             8 2.92   9 3.04  21 3.04   5 3.06
   7  0.833  0.833  0.382-   3 2.75   9 2.75  42 2.75  46 2.75  36 2.75  47 2.75   2 2.89  39 2.93
                             4 2.95
   8  0.993  0.244  0.572-  26 2.12  23 2.66  49 2.68  11 2.71  20 2.74  35 2.90   6 2.92  48 2.93
                            38 2.95  52 3.04
   9  0.833  0.583  0.382-   5 2.75   7 2.75  21 2.75  47 2.75   3 2.75  17 2.75  39 2.93  14 2.95
                             6 3.04
  10  0.333  0.083  0.382-   1 2.75   5 2.75  34 2.75  47 2.75  42 2.75  56 2.75  52 2.92  51 2.95
                            16 3.02
  11  0.240  0.999  0.566-  32 2.13  40 2.66  49 2.67   8 2.71  50 2.77  43 2.82  15 2.83  51 2.86
                            52 2.88  35 2.94
  12  0.333  0.583  0.382-   1 2.75  34 2.75  36 2.75  45 2.75  17 2.75   3 2.75  37 2.87  44 2.89
                            53 3.00
  13  0.164  0.419  0.476-  16 2.73  39 2.74   6 2.75  52 2.75  44 2.75  37 2.77  24 2.80   3 2.93
                             5 2.94  34 2.96  35 3.02  38 3.02
  14  0.660  0.670  0.475-  51 2.71   4 2.75  53 2.75  22 2.76  39 2.78   6 2.78  41 2.86  17 2.90
                            47 2.90  50 2.91   9 2.95  20 3.00
  15  0.165  0.919  0.474-  51 2.73  52 2.74  37 2.74  53 2.75   2 2.77  48 2.77  49 2.82  11 2.83
                            56 2.87  36 2.88   1 2.89  40 2.94
  16  0.411  0.169  0.480-  52 2.73  13 2.73   4 2.75  44 2.77  18 2.77  51 2.77  55 2.86  43 2.93
                            35 2.97  10 3.02  34 3.02  42 3.06
  17  0.583  0.583  0.382-   1 2.75  21 2.75  45 2.75  47 2.75  12 2.75   9 2.75  14 2.90  22 2.95
                            53 3.05
  18  0.661  0.170  0.473-  22 2.73  44 2.73  48 2.76   2 2.76   4 2.76  16 2.77  45 2.84  42 2.85
                            46 2.89  23 3.00  55 3.02  19 3.21
  19  0.764  0.989  0.576-  27 2.06  33 2.60  49 2.64  41 2.72  23 2.78  43 2.90  55 2.99   2 3.02
                             4 3.11  18 3.21
  20  0.749  0.497  0.571-  31 2.12   8 2.74  38 2.74  23 2.74  41 2.79  50 2.80   6 2.83  22 2.93
                            14 3.00
  21  0.833  0.333  0.382-   9 2.75  17 2.75  46 2.75  56 2.75   5 2.75  45 2.75  48 2.90  22 3.00
                             6 3.04
  22  0.659  0.419  0.477-  44 2.70  53 2.72  18 2.73  48 2.76  14 2.76   6 2.81  23 2.93  20 2.93
                            45 2.93  17 2.95  21 3.00
  23  0.749  0.248  0.570-  28 2.15   8 2.66  49 2.73  20 2.74  55 2.77  19 2.78  48 2.93  22 2.93
                            18 3.00
  24  0.259  0.502  0.562-  30 2.24  55 2.63  44 2.72  40 2.72  54 2.74  35 2.74  13 2.80  33 2.82
                            37 2.83  38 2.91
  25  0.590  0.817  0.610-  41 1.96  43 1.99  50 2.01
  26  0.071  0.346  0.619-  38 2.00  35 2.01   8 2.12
  27  0.580  0.093  0.617-  55 2.01  43 2.03  19 2.06
  28  0.571  0.341  0.620-  54 1.93  55 2.01  23 2.15
  29  0.268  0.714  0.640-  54 1.89  40 1.92
  30  0.072  0.608  0.613-  33 1.95  38 1.99  24 2.24
  31  0.572  0.589  0.620-  54 1.96  50 2.04  20 2.12
  32  0.320  0.089  0.618-  35 1.97  43 2.02  11 2.13
  33  0.999  0.755  0.562-  30 1.95  19 2.60  49 2.67  40 2.68  38 2.74  41 2.75   2 2.78  39 2.79
                            37 2.82  24 2.82
  34  0.333  0.333  0.382-   3 2.75  10 2.75  12 2.75  42 2.75   5 2.75  45 2.75  44 2.90  13 2.96
                            16 3.02
  35  0.247  0.262  0.577-  32 1.97  26 2.01  55 2.69  24 2.74  38 2.80  43 2.81   8 2.90  11 2.94
                            16 2.97  13 3.02  52 3.16
  36  0.083  0.833  0.382-   3 2.75  12 2.75  46 2.75  56 2.75   7 2.75   1 2.75  37 2.84  15 2.88
                             2 2.91
  37  0.164  0.670  0.472-  53 2.71  15 2.74  44 2.75   2 2.76  13 2.77  39 2.77  33 2.82  24 2.83
                            36 2.84   3 2.86  12 2.87  40 2.97
  38  0.990  0.513  0.573-  30 1.99  26 2.00  41 2.61  33 2.74  20 2.74  35 2.80   6 2.91  24 2.91
                            39 2.93   8 2.95  13 3.02
  39  0.914  0.668  0.476-   6 2.74  13 2.74   2 2.76  37 2.77  14 2.78  41 2.78   4 2.78  33 2.79
                             9 2.93  38 2.93   7 2.93   3 2.95
  40  0.242  0.757  0.569-  29 1.92  11 2.66  50 2.66  33 2.68  49 2.69  24 2.72  54 2.77  53 2.84
                            15 2.94  37 2.97
  41  0.753  0.749  0.565-  25 1.96  38 2.61  19 2.72  33 2.75  39 2.78  20 2.79  43 2.81   4 2.85
                            14 2.86  50 2.92
  42  0.583  0.083  0.382-   7 2.75  34 2.75  45 2.75  47 2.75  46 2.75  10 2.75  18 2.85   4 2.90
                            16 3.06
  43  0.495  0.000  0.574-  25 1.99  32 2.02  27 2.03  35 2.81  41 2.81  11 2.82  55 2.84  50 2.84
                            19 2.90  16 2.93  51 2.99   4 3.03
  44  0.414  0.419  0.474-  22 2.70  24 2.72  53 2.72  18 2.73  37 2.75  13 2.75  16 2.77  12 2.89
                            34 2.90  45 2.91  55 2.93
  45  0.583  0.333  0.382-  12 2.75  17 2.75  42 2.75  46 2.75  21 2.75  34 2.75  18 2.84  44 2.91
                            22 2.93
  46  0.833  0.083  0.382-   7 2.75  21 2.75  36 2.75  45 2.75  42 2.75  56 2.75   2 2.88  18 2.89
                            48 2.92
  47  0.583  0.833  0.382-   9 2.75  10 2.75  17 2.75  42 2.75   1 2.75   7 2.75   4 2.90  14 2.90
                            51 2.96
  48  0.912  0.171  0.476-   6 2.74  52 2.75  18 2.76  22 2.76   2 2.76  15 2.77  49 2.80  21 2.90
                            46 2.92  23 2.93   8 2.93  56 2.95
  49  0.997  1.000  0.562-  19 2.64  11 2.67  33 2.67   8 2.68  40 2.69  23 2.73   2 2.80  48 2.80
                            15 2.82
  50  0.489  0.745  0.567-  25 2.01  31 2.04  40 2.66  53 2.72  11 2.77  20 2.80  43 2.84  51 2.87
                            14 2.91  41 2.92  54 3.17
  51  0.414  0.916  0.477-  14 2.71   4 2.73  15 2.73  53 2.76  16 2.77  52 2.77  11 2.86  50 2.87
                             1 2.93  10 2.95  47 2.96  43 2.99
  52  0.163  0.169  0.475-  16 2.73  15 2.74   6 2.75  13 2.75  48 2.75  51 2.77  11 2.88   5 2.89
                            56 2.90  10 2.92   8 3.04  35 3.16
  53  0.412  0.667  0.480-  37 2.71  50 2.72  22 2.72  44 2.72  14 2.75  15 2.75  51 2.76  40 2.84
                            12 3.00   1 3.02  17 3.05
  54  0.428  0.535  0.630-  29 1.89  28 1.93  31 1.96  24 2.74  40 2.77  55 3.16  50 3.17
  55  0.492  0.259  0.570-  27 2.01  28 2.01  24 2.63  35 2.69  23 2.77  43 2.84  16 2.86  44 2.93
                            19 2.99  18 3.02  54 3.16
  56  0.083  0.083  0.382-   1 2.75   5 2.75  21 2.75  36 2.75  10 2.75  46 2.75  15 2.87  52 2.90
                            48 2.95

  LATTYP: Found a hexagonal cell.
 ALAT       =    11.0025815153
 C/A-ratio  =     2.3805127059

  Lattice vectors:

 A1 = (   5.5012907576,  -9.5285150994,   0.0000000000)
 A2 = ( -11.0025815153,   0.0000000000,   0.0000000000)
 A3 = (   0.0000000000,   0.0000000000, -26.1917850943)

Analysis of symmetry for initial positions (statically):
 Subroutine PRICEL returns:
 Original cell was already a primitive cell.

 Routine SETGRP: Setting up the symmetry group for a
 hexagonal supercell.

 Subroutine GETGRP returns: Found  1 space group operations
 (whereof  1 operations were pure point group operations)
 out of a pool of 24 trial point group operations.

The static configuration has the point symmetry C_1 .

Analysis of symmetry for dynamics (positions and initial velocities):
 Subroutine PRICEL returns:
 Original cell was already a primitive cell.

[...]

The dynamic configuration has the point symmetry C_1 .

Analysis of constrained symmetry for selective dynamics:
[...]
      7     -19.5787      2.00000
      8     -19.3716      2.00000
      9      -9.0570      2.00000
     10      -8.7961      2.00000
     11      -8.3898      2.00000
     12      -8.2155      2.00000
     13      -8.1595      2.00000
     14      -7.9873      2.00000
     15      -7.9243      2.00000
     16      -7.8093      2.00000
     17      -7.7916      2.00000
     18      -7.7434      2.00000
     19      -7.6974      2.00000
     20      -7.6169      2.00000
     21      -7.5710      2.00000
     22      -7.5123      2.00000
     23      -7.4694      2.00000
     24      -7.4555      2.00000
     25      -7.3906      2.00000
     26      -7.3459      2.00000
     27      -7.2940      2.00000
     28      -7.2718      2.00000
     29      -7.2587      2.00000
     30      -7.2070      2.00000
     31      -7.1866      2.00000
     32      -7.1542      2.00000
     33      -7.1379      2.00000
     34      -7.1206      2.00000
     35      -7.0951      2.00000
     36      -7.0702      2.00000
     37      -7.0370      2.00000
     38      -7.0162      2.00000
     39      -6.9983      2.00000
     40      -6.9797      2.00000
     41      -6.9187      2.00000
     42      -6.9101      2.00000
     43      -6.8776      2.00000
     44      -6.8374      2.00000
     45      -6.8200      2.00000
     46      -6.7939      2.00000
     47      -6.7766      2.00000
     48      -6.7476      2.00000
     49      -6.7153      2.00000
     50      -6.6928      2.00000
     51      -6.6788      2.00000
     52      -6.6558      2.00000
     53      -6.6285      2.00000
     54      -6.6127      2.00000
     55      -6.5952      2.00000
     56      -6.5578      2.00000
     57      -6.5344      2.00000
     58      -6.5200      2.00000
     59      -6.4991      2.00000
     60      -6.4691      2.00000
[...]
    322       4.0171      0.00000
    323       4.1096      0.00000
    324       4.3234      0.00000
    325       4.3534      0.00000
    326       4.4674      0.00000
    327       4.5014      0.00000
    328       4.5936      0.00000
    329       4.6909      0.00000
    330       4.8141      0.00000
    331       4.8317      0.00000
    332       4.8982      0.00000
    333       4.9372      0.00000
    334       5.0466      0.00000
    335       5.0900      0.00000
    336       5.1777      0.00000

 soft charge-density along one line, spin component           1
         0         1         2         3         4         5         6         7         8         9
 total charge-density along one line

------------------------ aborting loop because EDIFF is reached ----------------------------------------

 VOLUME and BASIS-vectors are now :
  energy-cutoff  :      400.00
  volume of cell :     2745.90
      direct lattice vectors                 reciprocal lattice vectors
    11.002581515  0.000000000  0.000000000     0.090887761 -0.052474073  0.000000000
     5.501290758  9.528515099  0.000000000     0.000000000  0.104948147  0.000000000
     0.000000000  0.000000000 26.191785094     0.000000000  0.000000000  0.038179910

  length of vectors
    11.002581515 11.002581515 26.191785094     0.104948147  0.104948147  0.038179910

 FORCES acting on ions
    electron-ion (+dipol)            ewald-force                    non-local-force                 convergence-correction
   -.315E+01 -.373E+01 0.250E+04   0.308E+01 0.431E+01 -.250E+04   0.100E+00 -.465E+00 0.703E-02   -.638E-03 0.101E-02 0.342E-03
   -.304E+01 -.259E+02 0.351E+03   0.341E+01 0.252E+02 -.350E+03   -.361E+00 0.699E+00 -.973E+00   -.262E-02 -.133E-02 0.282E-02
   -.113E+02 0.581E+01 0.251E+04   0.117E+02 -.561E+01 -.251E+04   -.268E+00 -.134E+00 -.534E+00   -.863E-03 0.369E-04 0.111E-02
   0.274E+01 -.235E+02 0.342E+03   -.377E+01 0.233E+02 -.342E+03   0.103E+01 0.239E+00 0.206E+00   0.951E-03 -.126E-02 0.242E-02
   0.160E+01 0.188E+02 0.249E+04   -.142E+01 -.195E+02 -.249E+04   -.186E+00 0.509E+00 -.173E+00   -.890E-03 -.603E-03 0.188E-02
   0.128E+02 0.262E+02 0.168E+03   -.123E+02 -.261E+02 -.167E+03   -.456E+00 -.615E-01 -.120E+01   0.985E-03 0.654E-03 -.806E-03
   0.184E+01 -.241E+02 0.252E+04   -.179E+01 0.247E+02 -.252E+04   -.782E-01 -.320E+00 -.859E-01   0.671E-03 -.676E-03 0.428E-03
   0.100E+03 0.714E+02 -.208E+04   -.102E+03 -.730E+02 0.208E+04   0.230E+01 0.163E+01 0.740E+00   0.318E-02 0.236E-02 -.254E-02
   0.830E+01 0.503E+01 0.250E+04   -.839E+01 -.439E+01 -.250E+04   0.627E-01 -.541E+00 0.315E+00   0.643E-03 -.883E-03 0.145E-02
   -.211E+02 -.428E+01 0.249E+04   0.216E+02 0.412E+01 -.249E+04   -.264E+00 0.121E+00 -.194E+00   -.166E-02 0.554E-03 0.113E-02
   0.104E+03 0.126E+02 -.186E+04   -.106E+03 -.139E+02 0.186E+04   0.216E+01 0.126E+01 0.146E+01   0.406E-02 0.771E-02 -.298E-02
   -.127E+02 0.160E+02 0.250E+04   0.125E+02 -.166E+02 -.250E+04   0.249E+00 0.416E+00 -.593E+00   -.408E-03 0.914E-03 0.154E-03
   0.843E+01 0.220E+02 0.307E+03   -.810E+01 -.220E+02 -.306E+03   -.328E+00 0.744E-01 -.392E+00   -.223E-02 -.626E-03 0.237E-02
   0.216E+02 0.216E+02 0.323E+03   -.220E+02 -.208E+02 -.323E+03   0.417E+00 -.815E+00 -.127E+00   0.330E-02 -.249E-02 -.128E-02
   -.483E+00 -.777E+01 0.358E+03   0.101E+01 0.767E+01 -.357E+03   -.523E+00 0.970E-01 -.511E+00   -.357E-03 0.170E-02 -.389E-02
   -.189E+01 0.679E+00 0.185E+03   0.165E+01 -.537E+00 -.183E+03   0.238E+00 -.140E+00 -.140E+01   -.257E-02 0.160E-02 -.431E-02
   0.168E+02 0.655E+01 0.249E+04   -.168E+02 -.639E+01 -.249E+04   -.134E+00 -.156E+00 0.311E+00   0.624E-03 0.168E-03 0.307E-03
   -.342E+01 -.220E+02 0.354E+03   0.349E+01 0.228E+02 -.356E+03   -.624E-01 -.813E+00 0.154E+01   -.228E-03 -.390E-03 0.105E-02
   -.119E+03 0.419E+02 -.198E+04   0.122E+03 -.433E+02 0.198E+04   -.230E+01 0.150E+01 0.304E+00   0.602E-02 -.370E-02 0.108E-01
   -.218E+02 0.644E+02 -.198E+04   0.229E+02 -.653E+02 0.198E+04   -.108E+01 0.847E+00 0.774E+00   0.282E-02 0.934E-03 -.699E-03
   0.126E+02 0.233E+02 0.249E+04   -.128E+02 -.247E+02 -.249E+04   0.970E-01 0.103E+01 0.719E-01   0.172E-02 -.636E-03 0.108E-02
   0.380E+02 -.832E+01 0.201E+03   -.393E+02 0.851E+01 -.201E+03   0.128E+01 -.175E+00 -.467E-02   0.494E-03 -.217E-02 0.804E-03
   -.682E+02 0.334E+02 -.195E+04   0.705E+02 -.345E+02 0.195E+04   -.234E+01 0.107E+01 0.103E+01   -.508E-03 -.118E-02 -.526E-03
   -.553E+02 0.302E+02 -.166E+04   0.579E+02 -.325E+02 0.166E+04   -.262E+01 0.225E+01 0.188E+01   -.111E-01 -.267E-02 -.311E-03
   -.460E+02 0.341E+02 -.165E+04   0.456E+02 -.383E+02 0.168E+04   0.419E+00 0.422E+01 -.279E+02   0.272E-02 -.320E-02 -.918E-03
   0.608E+02 -.337E+01 -.172E+04   -.616E+02 0.341E+01 0.175E+04   0.773E+00 -.432E-01 -.283E+02   -.104E-02 0.340E-02 -.156E-02
   -.649E+02 0.364E+02 -.170E+04   0.659E+02 -.356E+02 0.172E+04   -.967E+00 -.763E+00 -.281E+02   0.530E-02 -.218E-02 0.128E-02
   -.862E+02 0.851E+02 -.162E+04   0.937E+02 -.938E+02 0.164E+04   -.752E+01 0.861E+01 -.181E+02   0.139E-02 -.171E-02 -.190E-02
   0.917E+02 -.175E+03 -.177E+04   -.997E+02 0.189E+03 0.179E+04   0.795E+01 -.137E+02 -.225E+02   -.244E-02 0.171E-02 0.358E-02
   0.154E+02 -.446E+02 -.168E+04   -.101E+02 0.437E+02 0.170E+04   -.533E+01 0.881E+00 -.276E+02   -.183E-02 0.658E-03 -.425E-02
   -.103E+03 0.256E+02 -.160E+04   0.113E+03 -.241E+02 0.162E+04   -.993E+01 -.152E+01 -.181E+02   0.968E-02 -.141E-02 -.199E-02
   0.665E+02 0.250E+02 -.171E+04   -.694E+02 -.270E+02 0.174E+04   0.291E+01 0.198E+01 -.278E+02   -.140E-02 0.943E-03 -.549E-03
   0.114E+02 -.128E+03 -.163E+04   -.116E+02 0.128E+03 0.163E+04   0.263E+00 0.552E+00 -.630E+00   -.730E-02 -.259E-02 0.675E-02
   -.231E+02 0.261E+02 0.227E+04   0.236E+02 -.263E+02 -.227E+04   -.330E+00 0.153E-01 -.109E+01   -.141E-02 -.376E-04 0.982E-03
   -.393E+02 -.529E+02 -.178E+04   0.389E+02 0.518E+02 0.179E+04   0.441E+00 0.112E+01 -.205E+01   -.652E-02 -.813E-05 -.122E-01
   -.482E+01 -.232E+02 0.230E+04   0.492E+01 0.236E+02 -.230E+04   -.834E-01 -.115E+00 -.194E+01   0.146E-03 0.656E-03 -.196E-03
   -.229E+02 0.358E+01 0.348E+03   0.233E+02 -.346E+01 -.348E+03   -.358E+00 -.132E+00 -.121E+00   -.367E-02 -.225E-02 -.237E-02
   0.102E+03 -.397E+02 -.177E+04   -.102E+03 0.402E+02 0.177E+04   -.708E+00 -.517E+00 -.218E+01   -.224E-02 -.158E-02 -.423E-02
   0.408E+00 0.715E+01 0.280E+03   -.489E+00 -.727E+01 -.278E+03   0.895E-01 0.112E+00 -.188E+01   -.692E-03 -.330E-02 0.334E-02
   0.225E+02 -.799E+02 -.162E+04   -.226E+02 0.803E+02 0.162E+04   0.130E+00 -.337E+00 -.239E+01   -.336E-02 -.156E-02 -.110E-01
   -.100E+03 0.368E+02 -.165E+04   0.998E+02 -.367E+02 0.165E+04   0.284E+00 -.744E-01 -.894E-01   0.194E-03 -.377E-02 -.200E-02
   0.917E+01 -.236E+02 0.229E+04   -.916E+01 0.238E+02 -.229E+04   -.103E+00 0.255E-01 -.141E+01   -.152E-03 -.354E-03 0.405E-03
   -.131E+02 0.896E+01 -.172E+04   0.129E+02 -.883E+01 0.173E+04   0.239E+00 -.126E+00 -.251E+01   -.108E-01 -.156E-03 -.442E-02
   -.534E+02 -.333E+01 0.283E+03   0.534E+02 0.365E+01 -.282E+03   -.461E-02 -.321E+00 -.736E+00   -.252E-02 0.513E-05 0.249E-02
   0.108E+02 0.136E+02 0.228E+04   -.114E+02 -.137E+02 -.228E+04   0.368E+00 0.667E-01 -.173E+01   0.674E-03 -.328E-04 0.290E-03
   -.593E+01 -.131E+02 0.229E+04   0.625E+01 0.131E+02 -.229E+04   -.172E+00 0.234E-01 -.165E+01   0.145E-02 -.361E-03 0.437E-03
   0.694E+01 -.205E+02 0.229E+04   -.704E+01 0.208E+02 -.229E+04   0.477E-01 -.133E+00 -.148E+01   -.132E-03 -.260E-03 0.251E-03
   -.139E+01 -.117E+02 0.272E+03   0.164E+01 0.117E+02 -.271E+03   -.241E+00 0.517E-02 -.274E+00   0.596E-03 -.148E-02 -.348E-03
   0.179E+02 -.211E+02 -.178E+04   -.178E+02 0.215E+02 0.178E+04   -.103E+00 -.453E+00 0.143E+01   -.196E-02 0.847E-03 -.311E-02
   0.757E+02 0.907E+00 -.156E+04   -.756E+02 -.113E+01 0.156E+04   -.108E+00 0.226E+00 -.102E+01   0.399E-02 0.324E-02 -.268E-02
   0.988E-01 -.142E+02 0.272E+03   -.706E-01 0.137E+02 -.271E+03   -.299E-01 0.521E+00 -.933E+00   -.255E-02 0.119E-02 -.413E-02
   0.603E+01 -.689E+01 0.291E+03   -.630E+01 0.665E+01 -.292E+03   0.271E+00 0.243E+00 0.607E+00   -.185E-02 0.338E-02 -.181E-02
   0.393E+01 0.566E+02 0.163E+03   -.386E+01 -.563E+02 -.162E+03   -.754E-01 -.292E+00 -.143E+01   -.346E-03 0.530E-03 -.891E-02
   0.513E+02 0.760E+02 -.265E+04   -.478E+02 -.743E+02 0.265E+04   -.350E+01 -.164E+01 0.201E+01   -.722E-02 -.154E-01 -.392E-02
   0.544E+01 -.583E+02 -.166E+04   -.529E+01 0.583E+02 0.166E+04   -.163E+00 0.267E-02 -.193E+01   0.250E-02 0.511E-02 -.109E-01
   0.170E+02 -.231E+01 0.228E+04   -.175E+02 0.227E+01 -.228E+04   0.288E+00 0.417E-02 -.184E+01   0.223E-03 0.567E-03 0.105E-02
   0.184E+02 -.644E+01 0.221E+03   0.576E-12 -.392E-12 -.546E-11   -.183E+02 0.651E+01 -.221E+03   -.293E-01 -.204E-01 -.517E-01

 POSITION                                       TOTAL-FORCE (eV/Angst)
      8.25194      7.94043     10.00000         0.034781      0.117888     -0.085642
     15.11054      8.75714     12.41376         0.003021      0.002611      0.000185
      4.12597      5.55830     10.00000         0.123780      0.062328     -0.239344
     12.32013      8.76565     12.41960         0.002168      0.000566     -0.003203
      2.75065      3.17617     10.00000        -0.006783     -0.201798     -0.128505
     12.36684      3.98606     12.62809        -0.008698      0.001013     -0.002843
     13.75323      7.94043     10.00000        -0.022805      0.247638     -0.349553
     12.26970      2.33004     15.04950         0.002447     -0.001662     -0.000233
     12.37790      5.55830     10.00000        -0.033829      0.103628     -0.240000
      4.12597      0.79404     10.00000         0.292855     -0.037047      0.076733
      2.65431      0.00445     14.82028         0.010931     -0.002433      0.007072
      6.87661      5.55830     10.00000         0.053938     -0.205288     -0.017283
      4.11239      3.99217     12.47191         0.005914      0.000234      0.003945
     10.95397      6.37890     12.44559        -0.001421     -0.000439     -0.006780
      6.87294      8.76335     12.41481         0.007284     -0.003724     -0.002199
      5.46320      1.62043     12.63527         0.001247      0.002300      0.001104
      9.62726      5.55830     10.00000        -0.180081      0.002262     -0.256929
      8.21922      1.62966     12.37631         0.000529     -0.000594     -0.004438
     13.83167      9.45268     14.92508         0.003805      0.000346      0.000364
     10.98651      4.74352     14.98344         0.010896      0.002289     -0.006935
     11.00258      3.17617     10.00000        -0.120459     -0.404897     -0.082908
      9.56025      4.00368     12.51070         0.004853      0.006280     -0.005052
      9.61580      2.37630     14.94396         0.006725      0.000561     -0.001466
      5.62684      4.77964     14.70673         0.002876     -0.008785      0.014820
     11.00756      7.77407     15.99919         0.002293     -0.006195      0.000082
      2.71537      3.31824     16.23011        -0.004831     -0.003149      0.004803
      6.94791      0.85262     16.18043         0.009384      0.006378     -0.000663
      8.18847      3.24357     16.31923        -0.005275     -0.000962     -0.005871
      6.85966      6.78329     16.77791         0.008856      0.004209      0.007103
      4.15090      5.78756     16.06514         0.010977      0.004513     -0.006626
      9.53047      5.62578     16.25402         0.002834      0.006563      0.002298
      4.02417      0.86806     16.20896         0.004289     -0.003326      0.002000
     15.16209      7.20641     14.72363         0.009067      0.002336     -0.003751
      5.50129      3.17617     10.00000         0.183333     -0.202105      0.362118
      4.17061      2.49732     15.11173        -0.000650      0.009214      0.010068
      5.50129      7.94043     10.00000         0.013118      0.279416      0.093271
      5.50118      6.38291     12.37980        -0.003951     -0.008093     -0.000065
     13.72560      4.89641     15.00967         0.007504     -0.008078     -0.001777
     13.73156      6.36146     12.47393         0.007816     -0.006082     -0.008503
      6.83510      7.21200     14.91095         0.000892      0.010262     -0.000156
     12.40051      7.13660     14.76852        -0.003337      0.010595     -0.002494
      6.87661      0.79404     10.00000        -0.092226      0.168646      0.175471
      5.46618      0.00692     15.09083         0.003458      0.005051     -0.004150
      6.86631      3.99374     12.42807         0.002504     -0.004011      0.000736
      8.25194      3.17617     10.00000        -0.194983     -0.068588      0.148422
      9.62726      0.79404     10.00000         0.144685     -0.004408      0.180483
     11.00258      7.94043     10.00000        -0.045680      0.164811      0.126054
     10.98198      1.63410     12.46693         0.006177     -0.004099     -0.001283
     10.98306      0.00659     14.74826        -0.002561      0.002706     -0.002852
      9.49084      7.10931     14.85567        -0.004932      0.001910      0.008983
      9.60338      8.73539     12.49793        -0.004037     -0.004135      0.000613
      2.73221      1.61324     12.43449        -0.000476      0.005791     -0.001979
      8.20432      6.36291     12.57617        -0.001513     -0.000833      0.004497
      7.66204      5.08577     16.52399         0.003882     -0.003596     -0.010371
      6.85704      2.47742     15.01646        -0.010543     -0.002908      0.004466
      1.37532      0.79404     10.00000        -0.240049     -0.035110      0.248162
    total drift:                               -0.006882      0.041335     -0.081748

  FREE ENERGIE OF THE ION-ELECTRON SYSTEM (eV)
  free  energy   TOTEN  =      -233.20045937 eV

  energy  without entropy=     -233.02368919  energy(sigma->0) =     -233.11207428

 d Force = 0.3001203E-03[ 0.148E-03, 0.452E-03]  d Energy = 0.2911964E-03 0.892E-05
 d Force = 0.6283992E+01[ 0.630E+01, 0.627E+01]  d Ewald  = 0.6283988E+01 0.391E-05

 stress matrix after NEB project (eV)
      0.00000      0.00000      0.00000
      0.00000      0.00000      0.00000
      0.00000      0.00000      0.00000
  FORCES: max atom, RMS     0.017466    0.007764
  FORCE total and by dimension    0.058102    0.014820
  Stress total and by dimension    0.000000    0.000000
 Conjugate gradient step on ions:
 trial-energy change:   -0.000291  1 .order   -0.000300   -0.000452   -0.000148
  (g-gl).g = 0.304E-03      g.g   = 0.249E-03  gl.gl    = 0.401E-03
 g(Force)  = 0.249E-03   g(Stress)= 0.000E+00 ortho     = 0.206E-04
 gamma     =   0.75868
 trial     =   1.70917
 opt step  =   2.89158  (harmonic =   2.53971) maximal distance =0.00417686
 next E    =  -233.200508   (d E  =  -0.00034)

 reached required accuracy - stopping structural energy minimisation