 vasp.5.4.1 24Jun15 (build Mar 14 2019 10:18:33) complex

 executed on INTEL-19.0.2+OPENMPI date 2022.07.15  17:47:35

 INCAR:
 POTCAR:    PAW_PBE Au 04Oct2007
 POTCAR:    PAW_PBE Pd 04Jan2005
 POTCAR:    PAW_PBE Au 04Oct2007

 POTCAR:    PAW_PBE Pd 04Jan2005

 Optimization of the real space projectors (new method)

 maximal supplied QI-value         = 15.12
 optimisation between [QCUT,QGAM] = [ 10.13, 20.41] = [ 28.73,116.64] Ry
 Optimized for a Real-space Cutoff    1.51 Angstroem

   l    n(q)    QCUT    max X(q) W(low)/X(q) W(high)/X(q)  e(spline)
   2      8    10.129    60.898    0.46E-03    0.46E-03    0.14E-06
   2      8    10.129    58.894    0.47E-03    0.47E-03    0.14E-06
   0      9    10.129   109.617    0.16E-03    0.11E-03    0.54E-07
   0      9    10.129    75.026    0.15E-03    0.11E-03    0.52E-07
   1      9    10.129    16.344    0.96E-04    0.15E-03    0.14E-06
   1      9    10.129    10.160    0.81E-04    0.12E-03    0.11E-06
 Optimization of the real space projectors (new method)

 maximal supplied QI-value         = 14.36
 optimisation between [QCUT,QGAM] = [ 10.20, 20.39] = [ 29.12,116.47] Ry
 Optimized for a Real-space Cutoff    1.51 Angstroem

   l    n(q)    QCUT    max X(q) W(low)/X(q) W(high)/X(q)  e(spline)
   2      8    10.197    59.108    0.26E-03    0.14E-03    0.96E-07
   2      8    10.197    58.101    0.27E-03    0.14E-03    0.98E-07
   0      9    10.197   102.235    0.54E-04    0.60E-05    0.72E-07
   0      9    10.197    58.388    0.52E-04    0.60E-05    0.68E-07
   1      9    10.197    22.191    0.18E-03    0.25E-03    0.79E-07
   1      9    10.197    15.590    0.15E-03    0.21E-03    0.69E-07
  PAW_PBE Au 04Oct2007                  :
  PAW_PBE Pd 04Jan2005                  :

 POSCAR: Au Pd
  positions in cartesian coordinates
 exchange correlation table for  LEXCH =        8
   RHO(1)=    0.500       N(1)  =     2000
   RHO(2)=  100.500       N(2)  =     4000

 VTST: version 3.2, (02/03/18)

 CHAIN: initializing optimizer

 OPT: Using VASP Conjugate-Gradient optimizer
 CHAIN: Read ICHAIN            0

 POSCAR: Au Pd
  positions in cartesian coordinates

 ion  position               nearest neighbor table
   1  0.083  0.083  0.408-  41 2.75  22 2.75  24 2.75  29 2.75   8 2.75  39 2.75  16 2.75  44 2.75
                            21 2.75
   2  0.583  0.083  0.408-  10 2.75   4 2.75  15 2.75  45 2.75  47 2.75  16 2.75  39 2.75  43 2.75
                             3 2.75
   3  0.417  0.167  0.500-  39 2.75  40 2.75  35 2.75  38 2.75  33 2.75  20 2.75  43 2.75  41 2.75
                            10 2.75  45 2.75   2 2.75   5 2.75
   4  0.583  0.333  0.408-  11 2.75   6 2.75   2 2.75  16 2.75  34 2.75  29 2.75  45 2.75  10 2.75
                            38 2.75
   5  0.500  0.250  0.592-  38 2.75  10 2.75  30 2.75   9 2.75  40 2.75  46 2.75  35 2.75  27 2.75
                             3 2.75
   6  0.583  0.583  0.408-  13 2.75   8 2.75   4 2.75  29 2.75  47 2.75  34 2.75  12 2.75  11 2.75
                             7 2.75
   7  0.417  0.667  0.500-  34 2.75   9 2.75  18 2.75  33 2.75  11 2.75  38 2.75  44 2.75  17 2.75
                            13 2.75   8 2.75   6 2.75  32 2.75
   8  0.333  0.833  0.408-  33 2.75   6 2.75   1 2.75  34 2.75  39 2.75  24 2.75  47 2.75   7 2.75
                            44 2.75
   9  0.500  0.500  0.592-   7 2.75  11 2.75   5 2.75  18 2.75  27 2.75  32 2.75  14 2.75  46 2.75
                            38 2.75
  10  0.667  0.167  0.500-   2 2.75  30 2.75   5 2.75  11 2.75  36 2.75  38 2.75  43 2.75   3 2.75
                            21 2.75   4 2.75  16 2.75  27 2.75
  11  0.667  0.417  0.500-   4 2.75  27 2.75   9 2.75  10 2.75  13 2.75  21 2.75   7 2.75  26 2.75
                            38 2.75   6 2.75  29 2.75  14 2.75
  12  0.833  0.583  0.408-  23 2.75  22 2.75  15 2.75  29 2.75  47 2.75  31 2.75   6 2.75  26 2.75
                            13 2.75
  13  0.667  0.667  0.500-   6 2.75  14 2.75  32 2.75  26 2.75  11 2.75  33 2.75  43 2.75   7 2.75
                            23 2.75  47 2.75  12 2.75  19 2.75
  14  0.750  0.500  0.592-  13 2.75  26 2.75  19 2.75  27 2.75  28 2.75  32 2.75   9 2.75  48 2.75
                            11 2.75
  15  0.833  0.833  0.408-  36 2.75  12 2.75  16 2.75  31 2.75   2 2.75  24 2.75  47 2.75  23 2.75
                            43 2.75
  16  0.833  0.083  0.408-  21 2.75  15 2.75   4 2.75  24 2.75  29 2.75   2 2.75   1 2.75  36 2.75
                            10 2.75
  17  0.167  0.667  0.500-  31 2.75  46 2.75  37 2.75  20 2.75  38 2.75  44 2.75  36 2.75   7 2.75
                            23 2.75  24 2.75  34 2.75  18 2.75
  18  0.250  0.750  0.592-  44 2.75   7 2.75  25 2.75  42 2.75   9 2.75  46 2.75  37 2.75  32 2.75
                            17 2.75
  19  0.750  0.750  0.592-  43 2.75  23 2.75  30 2.75  40 2.75  14 2.75  48 2.75  37 2.75  32 2.75
                            13 2.75
  20  0.167  0.417  0.500-  22 2.75  35 2.75  48 2.75  23 2.75  17 2.75  41 2.75   3 2.75  26 2.75
                            38 2.75  31 2.75  46 2.75  45 2.75
  21  0.917  0.167  0.500-  16 2.75  25 2.75  27 2.75  26 2.75  11 2.75  36 2.75  44 2.75  41 2.75
                            10 2.75  29 2.75   1 2.75  28 2.75
  22  0.083  0.333  0.408-  20 2.75  12 2.75   1 2.75  31 2.75  39 2.75  29 2.75  45 2.75  41 2.75
                            26 2.75
  23  0.917  0.667  0.500-  12 2.75  48 2.75  19 2.75  26 2.75  36 2.75  43 2.75  20 2.75  13 2.75
                            17 2.75  15 2.75  31 2.75  37 2.75
  24  0.083  0.833  0.408-  44 2.75  16 2.75  31 2.75  34 2.75   1 2.75   8 2.75  15 2.75  17 2.75
                            36 2.75
  25  0.000  0.000  0.592-  21 2.75  44 2.75  27 2.75  28 2.75  37 2.75  18 2.75  42 2.75  30 2.75
                            36 2.75
  26  0.917  0.417  0.500-  29 2.75  28 2.75  14 2.75  23 2.75  13 2.75  21 2.75  41 2.75  20 2.75
                            11 2.75  12 2.75  22 2.75  48 2.75
  27  0.750  0.250  0.592-  11 2.75  21 2.75  14 2.75   9 2.75  25 2.75  30 2.75  28 2.75   5 2.75
                            10 2.75
  28  0.000  0.250  0.592-  26 2.75  41 2.75  14 2.75  25 2.75  42 2.75  48 2.75  35 2.75  27 2.75
                            21 2.75
  29  0.833  0.333  0.408-  26 2.75   6 2.75  12 2.75  16 2.75   1 2.75  22 2.75   4 2.75  21 2.75
                            11 2.75
  30  0.750  0.000  0.592-  10 2.75  36 2.75  19 2.75  27 2.75   5 2.75  37 2.75  25 2.75  40 2.75
                            43 2.75
  31  0.083  0.583  0.408-  17 2.75  15 2.75  22 2.75  24 2.75  45 2.75  34 2.75  12 2.75  20 2.75
                            23 2.75
  32  0.500  0.750  0.592-  33 2.75  13 2.75  14 2.75   9 2.75  40 2.75  42 2.75  19 2.75  18 2.75
                             7 2.75
  33  0.417  0.917  0.500-   8 2.75  32 2.75  42 2.75  13 2.75   7 2.75  41 2.75   3 2.75  43 2.75
                            44 2.75  39 2.75  40 2.75  47 2.75
  34  0.333  0.583  0.408-   7 2.75   4 2.75   8 2.75  24 2.75  45 2.75  31 2.75   6 2.75  38 2.75
                            17 2.75
  35  0.250  0.250  0.592-  20 2.75   3 2.75  40 2.75  42 2.75  46 2.75  48 2.75   5 2.75  28 2.75
                            41 2.75
  36  0.917  0.917  0.500-  15 2.75  37 2.75  30 2.75  21 2.75  23 2.75  10 2.75  17 2.75  43 2.75
                            44 2.75  16 2.75  24 2.75  25 2.75
  37  0.000  0.750  0.592-  36 2.75  17 2.75  30 2.75  25 2.75  46 2.75  48 2.75  19 2.75  18 2.75
                            23 2.75
  38  0.417  0.417  0.500-  45 2.75   5 2.75  46 2.75  10 2.75  17 2.75   3 2.75   7 2.75  11 2.75
                            20 2.75  34 2.75   9 2.75   4 2.75
  39  0.333  0.083  0.408-   3 2.75   8 2.75  22 2.75  45 2.75  47 2.75   2 2.75   1 2.75  33 2.75
                            41 2.75
  40  0.500  0.000  0.592-   3 2.75  43 2.75  19 2.75  32 2.75  35 2.75   5 2.75  42 2.75  30 2.75
                            33 2.75
  41  0.167  0.167  0.500-   1 2.75  42 2.75  28 2.75  20 2.75  33 2.75  26 2.75  44 2.75  21 2.75
                             3 2.75  22 2.75  35 2.75  39 2.75
  42  0.250  0.000  0.592-  41 2.75  33 2.75  32 2.75  18 2.75  35 2.75  28 2.75  40 2.75  25 2.75
                            44 2.75
  43  0.667  0.917  0.500-  47 2.75  19 2.75  40 2.75   3 2.75  23 2.75  10 2.75  13 2.75  33 2.75
                            36 2.75   2 2.75  15 2.75  30 2.75
  44  0.167  0.917  0.500-  24 2.75  18 2.75  25 2.75  21 2.75  17 2.75   7 2.75  41 2.75  36 2.75
                            33 2.75   1 2.75   8 2.75  42 2.75
  45  0.333  0.333  0.408-  38 2.75  31 2.75  34 2.75   2 2.75  39 2.75   4 2.75  22 2.75   3 2.75
                            20 2.75
  46  0.250  0.500  0.592-  17 2.75  38 2.75  18 2.75  35 2.75  37 2.75   5 2.75   9 2.75  48 2.75
                            20 2.75
  47  0.583  0.833  0.408-  43 2.75   6 2.75  12 2.75  39 2.75   2 2.75   8 2.75  15 2.75  13 2.75
                            33 2.75
  48  0.000  0.500  0.592-  23 2.75  20 2.75  19 2.75  28 2.75  35 2.75  37 2.75  14 2.75  46 2.75
                            26 2.75

  LATTYP: Found a hexagonal cell.
 ALAT       =    11.0025815153
 C/A-ratio  =     2.2260035120

  Lattice vectors:

 A1 = (   5.5012907576,  -9.5285150994,   0.0000000000)
 A2 = ( -11.0025815153,   0.0000000000,   0.0000000000)
 A3 = (   0.0000000000,   0.0000000000, -24.4917850943)

Analysis of symmetry for initial positions (statically):
 Subroutine PRICEL returns:
 Original cell was already a primitive cell.

 Routine SETGRP: Setting up the symmetry group for a
 hexagonal supercell.

 Subroutine GETGRP returns: Found  1 space group operations
 (whereof  1 operations were pure point group operations)
 out of a pool of 24 trial point group operations.

The static configuration has the point symmetry C_1 .

Analysis of symmetry for dynamics (positions and initial velocities):
 Subroutine PRICEL returns:
 Original cell was already a primitive cell.

 Routine SETGRP: Setting up the symmetry group for a
 hexagonal supercell.

 Subroutine GETGRP returns: Found  1 space group operations
 (whereof  1 operations were pure point group operations)
 out of a pool of 24 trial point group operations.

The dynamic configuration has the point symmetry C_1 .

 KPOINTS: Automatic mesh

Automatic generation of k-mesh.
Space group operators:
 irot       det(A)        alpha          n_x          n_y          n_z        tau_x        tau_y        tau_z
    1     1.000000     0.000000     1.000000     0.000000     0.000000     0.000000     0.000000     0.000000

 Subroutine IBZKPT returns following result:

 Found      6 irreducible k-points:

 Following reciprocal coordinates:
            Coordinates               Weight
  0.250000  0.250000  0.000000     16.000000
  0.000000  0.250000  0.000000     16.000000
 -0.250000  0.000000  0.000000     16.000000
 -0.250000  0.250000  0.000000     16.000000
  0.500000 -0.250000  0.000000     16.000000
 -0.250000  0.500000  0.000000     16.000000

 Following cartesian coordinates:
            Coordinates               Weight
  0.022722  0.013119  0.000000     16.000000
  0.000000  0.026237  0.000000     16.000000
[...]
  2.3446  0.9826  0.6099  0.1386  0.2972  0.2376

[...]

----------------------------------------- Iteration   27(   8)  ---------------------------------------

 eigenvalue-minimisations  :  2004
 total energy-change (2. order) :-0.3582827E-06  (-0.1145069E-06)
 number of electron     503.9999331 magnetization
 augmentation part      197.3520367 magnetization

 DIPCOR: dipole corrections for dipol
 direction  3 min pos     1,
 dipolmoment           0.000000      0.000000      0.001336 electrons x Angstroem
 Tr[quadrupol]    -10296.700644

 energy correction for charged system         0.000000 eV
 dipol+quadrupol energy correction           -0.000000 eV
 added-field ion interaction          0.001146 eV  (added to PSCEN)

  free energy =  -0.192037313588E+03  energy without entropy=  -0.191820555441E+03

 average (electrostatic) potential at core
  the test charge radii are     1.2098  1.1199
  (the norm of the test charge is              1.0000)
       1 -73.9652       2 -73.9610       3 -74.1532       4 -74.0108       5 -73.8830
       6 -73.9154       7 -74.1999       8 -73.9452       9 -73.9397      10 -74.1688
      11 -74.2017      12 -73.9724      13 -74.1919      14 -73.9186      15 -74.0118
      16 -73.9923      17 -74.2060      18 -73.8580      19 -73.8938      20 -74.1649
      21 -74.1543      22 -73.8799      23 -74.1908      24 -74.0240      25 -80.8631
      26 -80.8684      27 -80.8471      28 -80.8659      29 -80.8238      30 -80.8582
      31 -80.7771      32 -80.8721      33 -80.9437      34 -80.8385      35 -80.8168
      36 -80.8386      37 -80.8351      38 -80.8543      39 -80.8032      40 -80.8539
      41 -80.9484      42 -80.8495      43 -80.9017      44 -80.9146      45 -80.7973
      46 -80.8113      47 -80.8568      48 -80.8617

 E-fermi :  -1.1075     XC(G=0):  -4.5491     alpha+bet : -4.5211

[...]

 k-point     6 :      -0.2500    0.5000    0.0000
  band No.  band energies     occupation
      1      -8.6022      2.00000
      2      -8.2013      2.00000
      3      -7.9206      2.00000
      4      -7.4420      2.00000
      5      -7.1891      2.00000
      6      -7.0987      2.00000
      7      -7.0689      2.00000
      8      -6.9366      2.00000
      9      -6.8986      2.00000
     10      -6.8355      2.00000
     11      -6.7798      2.00000
     12      -6.7394      2.00000
     13      -6.7007      2.00000
     14      -6.6821      2.00000
     15      -6.6440      2.00000
     16      -6.5817      2.00000
     17      -6.5579      2.00000
     18      -6.5260      2.00000
     19      -6.4860      2.00000
     20      -6.4560      2.00000
     21      -6.4281      2.00000
     22      -6.3842      2.00000
     23      -6.3216      2.00000
     24      -6.2882      2.00000
     25      -6.2674      2.00000
     26      -6.2510      2.00000
     27      -6.2369      2.00000
     28      -6.2118      2.00000
     29      -6.1832      2.00000
     30      -6.1642      2.00000
     31      -6.1481      2.00000
     32      -6.1322      2.00000
     33      -6.0991      2.00000
     34      -6.0694      2.00000
     35      -6.0452      2.00000
     36      -6.0212      2.00000
     37      -5.9872      2.00000
     38      -5.9757      2.00000
     39      -5.9601      2.00000
     40      -5.9277      2.00000
     41      -5.9074      2.00000
     42      -5.8831      2.00000
     43      -5.8111      2.00000
     44      -5.7845      2.00000
     45      -5.7792      2.00000
     46      -5.7422      2.00000
     47      -5.7215      2.00000
     48      -5.7042      2.00000
     49      -5.6556      2.00000
     50      -5.6452      2.00000
     51      -5.6068      2.00000
     52      -5.5863      2.00000
     53      -5.5640      2.00000
     54      -5.5134      2.00000
     55      -5.4856      2.00000
     56      -5.4592      2.00000
     57      -5.4251      2.00000
     58      -5.3705      2.00000
     59      -5.3497      2.00000
     60      -5.3318      2.00000
[...]
    292       4.1800      0.00000
    293       4.4435      0.00000
    294       4.5262      0.00000
    295       4.5782      0.00000
    296       4.6395      0.00000
    297       4.6629      0.00000
    298       4.7823      0.00000
    299       4.8605      0.00000
    300       4.9062      0.00000
    301       4.9830      0.00000
    302       5.0415      0.00000
    303       5.0722      0.00000
    304       5.1005      0.00000
    305       5.2147      0.00000
    306       5.2329      0.00000

 soft charge-density along one line, spin component           1
         0         1         2         3         4         5         6         7         8         9
 total charge-density along one line

------------------------ aborting loop because EDIFF is reached ----------------------------------------

 VOLUME and BASIS-vectors are now :
  energy-cutoff  :      400.00
  volume of cell :     2567.68
      direct lattice vectors                 reciprocal lattice vectors
    11.002581515  0.000000000  0.000000000     0.090887761 -0.052474073  0.000000000
     5.501290758  9.528515099  0.000000000     0.000000000  0.104948147  0.000000000
     0.000000000  0.000000000 24.491785094     0.000000000  0.000000000  0.040830017

  length of vectors
    11.002581515 11.002581515 24.491785094     0.104948147  0.104948147  0.040830017

 FORCES acting on ions
    electron-ion (+dipol)            ewald-force                    non-local-force                 convergence-correction
   -.107E+02 -.199E+01 0.225E+04   0.111E+02 0.253E+01 -.225E+04   -.405E+00 -.530E+00 -.295E+00   0.152E-02 -.362E-02 -.574E-02
   0.181E+02 -.736E+01 0.225E+04   -.192E+02 0.708E+01 -.225E+04   0.105E+01 0.297E+00 -.653E-01   0.234E-02 -.102E-01 0.479E-04
   -.124E+02 -.402E+00 -.521E+02   0.118E+02 -.129E+00 0.520E+02   0.591E+00 0.560E+00 0.358E-01   -.281E-02 -.164E-01 0.484E-02
   0.183E+02 -.127E+02 0.222E+04   -.188E+02 0.133E+02 -.222E+04   0.480E+00 -.551E+00 0.106E+00   0.948E-02 -.426E-02 0.170E-02
   0.204E+00 0.196E+02 -.232E+04   -.507E+00 -.197E+02 0.232E+04   0.299E+00 0.371E-01 0.208E+00   0.351E-02 -.975E-02 0.513E-02
   0.713E+01 -.930E+00 0.229E+04   -.712E+01 0.846E+00 -.229E+04   -.861E-02 0.773E-01 0.400E+00   0.396E-02 0.270E-02 0.145E-01
   -.310E+01 0.524E+01 -.557E+02   0.291E+01 -.493E+01 0.557E+02   0.175E+00 -.317E+00 -.693E-02   0.599E-02 0.132E-01 0.613E-02
   -.332E+01 0.539E+01 0.223E+04   0.393E+01 -.511E+01 -.223E+04   -.619E+00 -.284E+00 -.161E+00   0.161E-02 0.420E-02 0.860E-02
   -.622E+01 0.763E-01 -.232E+04   0.596E+01 -.348E+00 0.232E+04   0.245E+00 0.274E+00 0.120E+00   0.858E-02 0.298E-02 -.116E-02
   0.355E+01 -.421E+01 -.128E+02   -.353E+01 0.347E+01 0.140E+02   -.221E-01 0.754E+00 -.123E+01   0.785E-04 -.707E-02 0.329E-02
   0.647E+01 -.132E+02 -.317E+02   -.625E+01 0.129E+02 0.317E+02   -.220E+00 0.327E+00 0.266E-01   0.129E-02 0.252E-02 -.104E-02
   -.643E+01 0.995E+00 0.223E+04   0.635E+01 -.135E+01 -.223E+04   0.849E-01 0.342E+00 -.268E-01   -.486E-02 0.380E-02 0.692E-03
   -.783E+00 0.121E+02 -.375E+02   0.724E+00 -.113E+02 0.375E+02   0.574E-01 -.815E+00 0.660E-01   -.524E-02 0.784E-02 -.256E-03
   -.111E+02 0.111E+02 -.229E+04   0.115E+02 -.117E+02 0.229E+04   -.446E+00 0.578E+00 -.137E+00   -.827E-02 0.342E-02 -.500E-02
   0.332E+01 0.105E+02 0.222E+04   -.356E+01 -.107E+02 -.222E+04   0.249E+00 0.159E+00 -.250E+00   -.431E-02 0.518E-02 -.285E-02
   0.293E+01 -.384E+01 0.228E+04   -.250E+01 0.427E+01 -.228E+04   -.420E+00 -.431E+00 0.624E-01   0.811E-03 -.168E-02 -.771E-02
   -.920E+01 -.885E+01 -.693E+02   0.936E+01 0.896E+01 0.691E+02   -.142E+00 -.121E+00 0.120E+00   0.110E-02 0.121E-01 0.236E-03
   0.525E+01 -.261E+02 -.232E+04   -.562E+01 0.267E+02 0.232E+04   0.354E+00 -.596E+00 0.462E-01   0.874E-02 0.135E-01 0.852E-03
   -.523E+01 -.959E+01 -.231E+04   0.560E+01 0.104E+02 0.231E+04   -.360E+00 -.799E+00 0.139E-02   -.991E-02 0.865E-02 -.162E-02
   0.402E+01 0.879E+00 -.580E+02   -.409E+01 -.123E+01 0.585E+02   0.658E-01 0.344E+00 -.566E+00   -.691E-03 -.182E-02 0.289E-02
   0.327E+01 0.446E+01 0.101E+02   -.254E+01 -.470E+01 -.902E+01   -.754E+00 0.250E+00 -.106E+01   0.921E-02 -.982E-02 -.353E-02
   -.177E+02 -.503E+01 0.224E+04   0.180E+02 0.494E+01 -.224E+04   -.311E+00 0.989E-01 -.240E+00   -.593E-02 -.887E-02 -.110E-02
   0.128E+02 -.489E+01 -.501E+02   -.127E+02 0.516E+01 0.506E+02   -.922E-01 -.291E+00 -.519E+00   -.256E-02 0.111E-01 -.207E-02
   -.403E+01 0.221E+02 0.222E+04   0.393E+01 -.229E+02 -.222E+04   0.100E+00 0.731E+00 -.411E+00   0.385E-02 0.663E-02 -.235E-02
   -.672E+00 -.574E+01 -.198E+04   0.557E+00 0.580E+01 0.198E+04   0.105E+00 -.721E-01 0.186E+01   0.514E-02 0.231E-03 -.144E-01
   0.430E+01 -.582E+01 -.183E+02   -.425E+01 0.536E+01 0.188E+02   -.492E-01 0.461E+00 -.459E+00   -.571E-02 -.437E-02 -.328E-02
   -.135E+02 0.220E+02 -.201E+04   0.137E+02 -.224E+02 0.201E+04   -.270E+00 0.448E+00 0.127E+01   -.297E-03 -.320E-02 -.489E-02
   -.157E+01 0.128E+02 -.199E+04   0.203E+01 -.129E+02 0.199E+04   -.452E+00 0.132E+00 0.181E+01   -.308E-02 -.102E-01 -.847E-02
   -.221E+01 -.710E+01 0.196E+04   0.235E+01 0.710E+01 -.196E+04   -.135E+00 0.897E-03 -.130E+01   0.676E-03 -.230E-02 -.658E-02
   -.118E+02 0.194E+01 -.198E+04   0.120E+02 -.222E+01 0.198E+04   -.204E+00 0.280E+00 0.175E+01   -.334E-02 0.813E-03 -.141E-02
   -.156E+02 0.120E+02 0.196E+04   0.160E+02 -.123E+02 -.196E+04   -.419E+00 0.284E+00 -.109E+01   -.291E-02 0.624E-02 0.455E-02
   -.255E+01 -.192E+02 -.201E+04   0.243E+01 0.199E+02 0.200E+04   0.114E+00 -.747E+00 0.158E+01   -.212E-02 0.821E-02 0.874E-03
   0.183E+01 0.590E+01 -.167E+02   -.184E+01 -.559E+01 0.172E+02   0.807E-02 -.330E+00 -.441E+00   -.398E-02 0.471E-02 0.347E-02
   0.134E+02 0.133E+02 0.192E+04   -.138E+02 -.137E+02 -.192E+04   0.350E+00 0.342E+00 -.145E+01   0.542E-02 0.857E-02 0.651E-02
   0.165E+02 0.124E+02 -.204E+04   -.169E+02 -.123E+02 0.204E+04   0.468E+00 -.588E-01 0.164E+01   -.225E-02 -.165E-01 0.742E-02
   -.839E-01 -.382E+01 0.228E+02   0.487E-01 0.390E+01 -.216E+02   0.321E-01 -.666E-01 -.126E+01   0.896E-03 0.326E-02 -.213E-03
   0.241E+01 -.147E+02 -.202E+04   -.230E+01 0.149E+02 0.202E+04   -.122E+00 -.181E+00 0.161E+01   0.901E-03 0.119E-01 0.142E-02
   -.125E+02 0.251E+01 -.100E+03   0.122E+02 -.223E+01 0.998E+02   0.248E+00 -.273E+00 0.482E+00   0.690E-02 -.304E-02 0.645E-02
   -.836E+01 -.556E+01 0.196E+04   0.843E+01 0.536E+01 -.196E+04   -.640E-01 0.204E+00 -.165E+01   -.166E-02 -.744E-02 0.542E-02
   0.718E+01 0.345E+01 -.200E+04   -.744E+01 -.358E+01 0.200E+04   0.263E+00 0.130E+00 0.171E+01   -.538E-02 -.492E-02 -.271E-02
   0.459E+01 -.908E+00 0.165E+01   -.468E+01 0.470E+00 -.777E+00   0.113E+00 0.456E+00 -.875E+00   -.695E-02 -.160E-01 0.247E-03
   0.605E+01 -.110E+02 -.198E+04   -.587E+01 0.111E+02 0.198E+04   -.182E+00 -.129E+00 0.194E+01   0.228E-03 -.620E-02 -.438E-02
   -.483E+01 0.169E+01 -.181E+02   0.469E+01 -.158E+01 0.185E+02   0.146E+00 -.112E+00 -.339E+00   -.378E-02 0.945E-03 -.321E-02
   0.288E+01 0.615E+01 0.117E+00   -.269E+01 -.553E+01 0.770E+00   -.196E+00 -.630E+00 -.887E+00   0.657E-02 0.816E-02 -.178E-02
   -.937E+00 -.128E+02 0.193E+04   0.949E+00 0.131E+02 -.193E+04   -.620E-02 -.293E+00 -.146E+01   -.202E-02 -.713E-02 0.951E-02
   0.145E+02 -.851E+00 -.204E+04   -.149E+02 0.761E+00 0.204E+04   0.374E+00 0.856E-01 0.145E+01   0.596E-02 0.233E-02 0.109E-01
   0.447E+01 -.694E+01 0.195E+04   -.459E+01 0.748E+01 -.194E+04   0.114E+00 -.549E+00 -.146E+01   0.249E-02 0.286E-02 0.102E-02
   0.124E+01 0.694E+01 -.203E+04   -.987E+00 -.746E+01 0.203E+04   -.256E+00 0.517E+00 0.173E+01   -.936E-02 0.151E-03 0.510E-02
   0.491E-01 -.159E-01 -.238E+01   -.936E-12 0.109E-12 0.568E-11   -.678E-01 -.717E-02 0.238E+01   -.146E-03 0.140E-02 0.261E-01

 POSITION                                       TOTAL-FORCE (eV/Angst)
      1.39314      0.80570      9.69921         0.001566      0.001175     -0.005553
      6.83722      0.79099      9.71125        -0.004287      0.006986     -0.006482
      5.48872      1.56369     12.28288        -0.004062      0.012659     -0.000863
      8.22547      3.19069      9.74663        -0.001898      0.002874     -0.007964
      6.85745      2.36486     14.83349         0.000150     -0.001593      0.013356
      9.62092      5.55692      9.63316         0.002321     -0.003415      0.004940
      8.24866      6.36141     12.29053        -0.005284      0.001445      0.000686
      8.27521      7.94416      9.73847        -0.001697      0.004077     -0.004248
      8.24329      4.76364     14.86908         0.000348      0.006376     -0.006869
      8.25078      1.56119     12.25280         0.004149      0.004298      0.003298
      9.63611      3.96797     12.26251        -0.002731     -0.004057      0.000930
     12.37740      5.54605      9.72740         0.003534     -0.005206     -0.005792
     11.00095      6.37250     12.26710        -0.006914      0.010078      0.007196
     11.02900      4.74709     14.81118        -0.000216      0.001569     -0.004937
     13.74302      7.93254      9.74199         0.007919     -0.000972      0.000990
      9.62708      0.80508      9.63212         0.009017     -0.002587      0.000558
      5.50957      6.36164     12.30225         0.019308     -0.000237     -0.000262
      6.86437      7.18673     14.82660        -0.004373      0.004680      0.008846
     12.38772      7.17882     14.80906        -0.002466      0.005683      0.002362
      4.11943      3.95087     12.29800        -0.005082     -0.009380     -0.000191
     11.02466      1.57334     12.22145        -0.013130      0.006710     -0.010901
      2.77241      3.17720      9.74408        -0.002414     -0.000293      0.003234
     13.74820      6.36588     12.28413        -0.004062     -0.004085      0.000351
      5.50865      7.91553      9.74277         0.003158      0.000245     -0.002581
     -0.00735      0.01619     14.57580        -0.003945     -0.009116      0.005819
     12.38392      3.96769     12.24793         0.003299     -0.000774     -0.002489
      9.63901      2.37186     14.64749        -0.003287     -0.006001     -0.000834
      1.39378      2.36502     14.59679        -0.001594      0.006440     -0.000504
     11.00105      3.18034      9.83347         0.004784     -0.001898      0.000607
      8.26559     -0.00146     14.60078         0.003546     -0.006193      0.001205
      4.13842      5.54913      9.88477        -0.000771     -0.002881      0.003633
      9.62460      7.16642     14.66382         0.000284     -0.004038     -0.007533
      9.60913      8.74440     12.24512        -0.000384     -0.016332      0.003265
      6.87266      5.54674      9.92726        -0.000025     -0.002018      0.005687
      4.10093      2.38072     14.66719        -0.000882      0.000056      0.002430
     15.13530      8.73034     12.20356        -0.001860      0.010667     -0.005511
      4.12860      7.16446     14.65742        -0.006682      0.013406      0.004214
      6.88562      3.95577     12.35169        -0.002315      0.002978      0.001299
      4.13537      0.79220      9.87870        -0.000003      0.000934      0.012328
      5.48417     -0.00003     14.63301         0.000906     -0.005454     -0.002255
      2.73888      1.57707     12.22453         0.014543      0.001989     -0.005513
      2.75903      0.00996     14.58312         0.000198      0.000238     -0.003507
     12.37236      8.73142     12.24625         0.000614      0.002232      0.001099
      6.89150      8.74549     12.22507         0.001733     -0.006458     -0.002198
      5.50257      3.18866      9.92958         0.004041     -0.007665     -0.002694
      5.47626      4.76861     14.71075         0.007414     -0.001932     -0.000626
     11.00069      7.93754      9.87138        -0.001457      0.000913      0.003713
      2.76369      4.75431     14.66921        -0.011014     -0.006120     -0.001737
    total drift:                               -0.018798     -0.021679      0.026249

  FREE ENERGIE OF THE ION-ELECTRON SYSTEM (eV)
  free  energy   TOTEN  =      -192.03731359 eV

  energy  without entropy=     -191.82055544  energy(sigma->0) =     -191.92893451

 d Force = 0.2623107E-04[-0.403E-06, 0.529E-04]  d Energy = 0.2205839E-04 0.417E-05
 d Force =-0.5635830E+01[-0.563E+01,-0.564E+01]  d Ewald  =-0.5635831E+01 0.775E-06

 stress matrix after NEB project (eV)
      0.00000      0.00000      0.00000
      0.00000      0.00000      0.00000
      0.00000      0.00000      0.00000
  FORCES: max atom, RMS     0.019311    0.009485
  FORCE total and by dimension    0.065717    0.019308
  Stress total and by dimension    0.000000    0.000000

 reached required accuracy - stopping structural energy minimisation