 vasp.5.4.1 24Jun15 (build Mar 14 2019 10:18:33) complex

 executed on INTEL-19.0.2+OPENMPI date 2023.01.23  15:48:24

 INCAR:
 POTCAR:    PAW_PBE Au 04Oct2007
 POTCAR:    PAW_PBE O 08Apr2002
 POTCAR:    PAW_PBE Pd 04Jan2005
 POTCAR:    PAW_PBE Au 04Oct2007

 POTCAR:    PAW_PBE O 08Apr2002

 POTCAR:    PAW_PBE Pd 04Jan2005

 Optimization of the real space projectors (new method)

 maximal supplied QI-value         = 15.12
 optimisation between [QCUT,QGAM] = [ 10.13, 20.41] = [ 28.73,116.64] Ry
 Optimized for a Real-space Cutoff    1.51 Angstroem

   l    n(q)    QCUT    max X(q) W(low)/X(q) W(high)/X(q)  e(spline)
   2      8    10.129    60.898    0.46E-03    0.46E-03    0.14E-06
   2      8    10.129    58.894    0.47E-03    0.47E-03    0.14E-06
   0      9    10.129   109.617    0.16E-03    0.11E-03    0.54E-07
   0      9    10.129    75.026    0.15E-03    0.11E-03    0.52E-07
   1      9    10.129    16.344    0.96E-04    0.15E-03    0.14E-06
   1      9    10.129    10.160    0.81E-04    0.12E-03    0.11E-06
 Optimization of the real space projectors (new method)

[...]

   l    n(q)    QCUT    max X(q) W(low)/X(q) W(high)/X(q)  e(spline)
   0      8    10.150    20.381    0.22E-03    0.32E-03    0.29E-06
   0      8    10.150    15.268    0.23E-03    0.35E-03    0.30E-06
   1      8    10.150     5.964    0.46E-03    0.53E-03    0.21E-06
   1      8    10.150     5.382    0.38E-03    0.45E-03    0.19E-06
 Optimization of the real space projectors (new method)

 maximal supplied QI-value         = 14.36
 optimisation between [QCUT,QGAM] = [ 10.20, 20.39] = [ 29.12,116.47] Ry
 Optimized for a Real-space Cutoff    1.51 Angstroem

   l    n(q)    QCUT    max X(q) W(low)/X(q) W(high)/X(q)  e(spline)
   2      8    10.197    59.108    0.26E-03    0.14E-03    0.96E-07
   2      8    10.197    58.101    0.27E-03    0.14E-03    0.98E-07
   0      9    10.197   102.235    0.54E-04    0.60E-05    0.72E-07
   0      9    10.197    58.388    0.52E-04    0.60E-05    0.68E-07
   1      9    10.197    22.191    0.18E-03    0.25E-03    0.79E-07
   1      9    10.197    15.590    0.15E-03    0.21E-03    0.69E-07
  PAW_PBE Au 04Oct2007                  :
  PAW_PBE O 08Apr2002                   :
  PAW_PBE Pd 04Jan2005                  :

 POSCAR: Au  O Pd
  positions in direct lattice
  velocities in cartesian coordinates
 exchange correlation table for  LEXCH =        8
   RHO(1)=    0.500       N(1)  =     2000
   RHO(2)=  100.500       N(2)  =     4000

 VTST: version 3.2, (02/03/18)

 CHAIN: initializing optimizer

 OPT: Using VASP Conjugate-Gradient optimizer
 CHAIN: Read ICHAIN            0

 POSCAR: Au  O Pd
  positions in direct lattice
  velocities in cartesian coordinates

 ion  position               nearest neighbor table
   1  0.083  0.083  0.382-   3 2.75  42 2.75  45 2.75  46 2.75  15 2.75   8 2.75  16 2.88  54 2.93
                            53 2.98
   2  0.758  0.751  0.618-  31 2.03  40 2.67  41 2.68   6 2.81  10 2.96  11 2.99  55 3.02  51 3.09

   3  0.083  0.833  0.382-   1 2.75   8 2.75   9 2.75  22 2.75  42 2.75  52 2.75  12 2.85  54 2.85
                            23 3.29
   4  0.679  0.897  0.473-  50 2.70  12 2.71  13 2.77  52 2.81  44 2.84  33 2.84  10 2.85  21 2.86
                             6 2.87  55 2.94  24 2.98
   5  0.833  0.583  0.382-  33 2.75  45 2.75  46 2.75  52 2.75   9 2.75  17 2.75  50 2.86   7 2.96

   6  0.770  0.968  0.565-  49 2.75  55 2.77  40 2.77  48 2.77   2 2.81  12 2.82   4 2.87  18 2.91
                            44 2.95  10 3.20
   7  0.919  0.411  0.476-  50 2.67  19 2.72  47 2.74  16 2.75  53 2.78  51 2.79  10 2.90  46 2.91
                            45 2.92   5 2.96  43 2.97
   8  0.833  0.083  0.382-   3 2.75  34 2.75  46 2.75  52 2.75  24 2.75   1 2.75  44 2.92  12 2.95
                            53 2.97
   9  0.083  0.583  0.382-   3 2.75  36 2.75  45 2.75  52 2.75  22 2.75   5 2.75  19 2.88  23 3.26

  10  0.908  0.658  0.520-  41 2.79  50 2.83   4 2.85  40 2.86   7 2.90  19 2.93  23 2.96   2 2.96
                            12 3.03  51 3.16   6 3.20
  11  0.526  0.742  0.563-  32 2.13  28 2.17  55 2.66  50 2.72  51 2.78  13 2.83  38 2.85  39 2.88
                            14 2.89  37 2.96   2 2.99
  12  0.923  0.903  0.473-  23 2.68   4 2.71  54 2.76  44 2.78  53 2.80   6 2.82  49 2.84  52 2.84
                             3 2.85   8 2.95  10 3.03
  13  0.425  0.903  0.472-  39 2.73  50 2.76  54 2.76   4 2.77  33 2.81  21 2.81  16 2.82  42 2.83
                            38 2.83  11 2.83  15 2.93  55 2.96
  14  0.503  0.492  0.568-  32 2.20  30 2.30  37 2.68  56 2.71  39 2.85  20 2.86  18 2.87  11 2.89
                            48 2.91  47 2.96  51 2.98
  15  0.333  0.083  0.382-  33 2.75  36 2.75  42 2.75  45 2.75   1 2.75  24 2.75  16 2.90  13 2.93
                            21 2.95
  16  0.169  0.159  0.475-  53 2.75   7 2.75  54 2.77  38 2.78  21 2.80  43 2.81  13 2.82  19 2.85
                            35 2.86   1 2.88  15 2.90  45 2.95
  17  0.583  0.583  0.382-  33 2.75  34 2.75  42 2.75  46 2.75   5 2.75  22 2.75  50 2.89  47 2.94
                            39 2.94
  18  0.505  0.230  0.571-  30 2.04  55 2.61  35 2.64  56 2.78  48 2.81  21 2.87  14 2.87   6 2.91
                            44 2.96  20 3.03
  19  0.161  0.422  0.475-   7 2.72  23 2.73  20 2.80  16 2.85  35 2.86   9 2.88  21 2.89  45 2.91
                            10 2.93  36 2.94  56 3.07
  20  0.420  0.412  0.476-  39 2.71  47 2.75  21 2.76  44 2.79  19 2.80  23 2.82  14 2.86  34 2.93
                            36 2.93  22 2.97  56 3.01  18 3.03
  21  0.423  0.160  0.477-  44 2.75  20 2.76  35 2.76  16 2.80  13 2.81  55 2.84   4 2.86  18 2.87
                            19 2.89  24 2.93  15 2.95  36 2.99
  22  0.333  0.583  0.382-   3 2.75  34 2.75  36 2.75  42 2.75  17 2.75   9 2.75  39 2.94  20 2.97
                            23 3.29
  23  0.165  0.665  0.491-  12 2.68  19 2.73  54 2.73  56 2.77  39 2.79  37 2.81  20 2.82  10 2.96
                             9 3.26  22 3.29   3 3.29  40 3.40
  24  0.583  0.083  0.382-  33 2.75  34 2.75  36 2.75  52 2.75   8 2.75  15 2.75  21 2.93  44 2.94
                             4 2.98
  25  0.119  0.290  0.617-  35 1.95  43 2.01  41 2.04
  26  0.133  0.548  0.636-  41 1.98  56 2.00  40 2.01
  27  0.092  0.855  0.621-  40 1.96  49 1.98  37 2.00
  28  0.344  0.843  0.612-  38 1.95  37 2.00  11 2.17
  29  0.850  0.313  0.609-  43 1.96  48 1.98  51 1.99
  30  0.606  0.296  0.619-  48 2.00  18 2.04  14 2.30
  31  0.566  0.916  0.634-  55 1.93   2 2.03
  32  0.614  0.572  0.615-  51 1.97  11 2.13  14 2.20
  33  0.583  0.833  0.382-   5 2.75  15 2.75  17 2.75  24 2.75  42 2.75  52 2.75  13 2.81   4 2.84
                            50 2.98
  34  0.583  0.333  0.382-   8 2.75  17 2.75  22 2.75  24 2.75  36 2.75  46 2.75  47 2.86  20 2.93
                            44 3.00
  35  0.257  0.247  0.563-  25 1.95  18 2.64  56 2.69  43 2.71  21 2.76  38 2.76  55 2.78  16 2.86
                            19 2.86  41 3.10
  36  0.333  0.333  0.382-   9 2.75  15 2.75  22 2.75  24 2.75  34 2.75  45 2.75  20 2.93  19 2.94
                            21 2.99
  37  0.263  0.736  0.579-  27 2.00  28 2.00  14 2.68  56 2.74  49 2.80  23 2.81  38 2.86  40 2.91
                            11 2.96  39 3.06  54 3.21
  38  0.260  0.994  0.562-  28 1.95  43 2.62  55 2.71  35 2.76  16 2.78  49 2.79  13 2.83  11 2.85
                            37 2.86  54 2.87
  39  0.421  0.657  0.477-  20 2.71  13 2.73  54 2.73  47 2.77  50 2.79  23 2.79  14 2.85  11 2.88
                            22 2.94  17 2.94  42 3.01  37 3.06
  40  0.005  0.740  0.607-  27 1.96  26 2.01   2 2.67  41 2.69   6 2.77  10 2.86  56 2.91  37 2.91
                            49 2.97  23 3.40
  41  0.994  0.501  0.609-  26 1.98  25 2.04   2 2.68  40 2.69  51 2.69  10 2.79  56 2.99  43 3.07
                            35 3.10
  42  0.333  0.833  0.382-   1 2.75  15 2.75  17 2.75  22 2.75   3 2.75  33 2.75  13 2.83  54 2.85
                            39 3.01
  43  0.021  0.229  0.568-  29 1.96  25 2.01  38 2.62  35 2.71  49 2.74  51 2.78  16 2.81  53 2.85
                            48 2.86   7 2.97  41 3.07
  44  0.673  0.158  0.477-  53 2.72  47 2.73  21 2.75  12 2.78  20 2.79   4 2.84  48 2.84   8 2.92
                            24 2.94   6 2.95  18 2.96  34 3.00
  45  0.083  0.333  0.382-   1 2.75   5 2.75   9 2.75  15 2.75  36 2.75  46 2.75  19 2.91   7 2.92
                            16 2.95
  46  0.833  0.333  0.382-   1 2.75   5 2.75   8 2.75  17 2.75  34 2.75  45 2.75  47 2.85   7 2.91
                            53 3.04
  47  0.673  0.406  0.474-  53 2.73  44 2.73  50 2.74   7 2.74  20 2.75  39 2.77  46 2.85  34 2.86
                            17 2.94  14 2.96  48 3.05  51 3.05
  48  0.763  0.223  0.569-  29 1.98  30 2.00  49 2.68   6 2.77  53 2.80  18 2.81  44 2.84  43 2.86
                            14 2.91  51 2.99  47 3.05
  49  0.011  0.985  0.562-  27 1.98  48 2.68  43 2.74  53 2.74   6 2.75  38 2.79  37 2.80  54 2.80
                            12 2.84  40 2.97
  50  0.676  0.653  0.475-   7 2.67   4 2.70  11 2.72  47 2.74  13 2.76  39 2.79  10 2.83   5 2.86
                            17 2.89  51 2.92  33 2.98
  51  0.776  0.488  0.568-  32 1.97  29 1.99  41 2.69  43 2.78  11 2.78   7 2.79  50 2.92  14 2.98
                            48 2.99  47 3.05   2 3.09  10 3.16
  52  0.833  0.833  0.382-   5 2.75   8 2.75   9 2.75  24 2.75   3 2.75  33 2.75   4 2.81  12 2.84

  53  0.920  0.158  0.479-  44 2.72  47 2.73  49 2.74  16 2.75   7 2.78  54 2.78  12 2.80  48 2.80
                            43 2.85   8 2.97   1 2.98  46 3.04
  54  0.173  0.906  0.473-  23 2.73  39 2.73  13 2.76  12 2.76  16 2.77  53 2.78  49 2.80  42 2.85
                             3 2.85  38 2.87   1 2.93  37 3.21
  55  0.508  0.992  0.566-  31 1.93  18 2.61  11 2.66  38 2.71   6 2.77  35 2.78  21 2.84   4 2.94
                            13 2.96   2 3.02
  56  0.259  0.488  0.575-  26 2.00  35 2.69  14 2.71  37 2.74  23 2.77  18 2.78  40 2.91  41 2.99
                            20 3.01  19 3.07

  LATTYP: Found a hexagonal cell.
 ALAT       =    11.0025815153
 C/A-ratio  =     2.3805127059

  Lattice vectors:

 A1 = (   5.5012907576,  -9.5285150994,   0.0000000000)
 A2 = ( -11.0025815153,   0.0000000000,   0.0000000000)
 A3 = (   0.0000000000,   0.0000000000, -26.1917850943)

Analysis of symmetry for initial positions (statically):
 Subroutine PRICEL returns:
 Original cell was already a primitive cell.

 Routine SETGRP: Setting up the symmetry group for a
 hexagonal supercell.

 Subroutine GETGRP returns: Found  1 space group operations
 (whereof  1 operations were pure point group operations)
 out of a pool of 24 trial point group operations.

The static configuration has the point symmetry C_1 .

Analysis of symmetry for dynamics (positions and initial velocities):
 Subroutine PRICEL returns:
 Original cell was already a primitive cell.

[...]

The dynamic configuration has the point symmetry C_1 .

Analysis of constrained symmetry for selective dynamics:
 Subroutine PRICEL returns:
 Original cell was already a primitive cell.

[...]
      7     -19.5171      2.00000
      8     -19.1008      2.00000
      9      -9.1403      2.00000
     10      -8.6448      2.00000
     11      -8.4023      2.00000
     12      -8.1553      2.00000
     13      -8.0647      2.00000
     14      -7.9274      2.00000
     15      -7.8757      2.00000
     16      -7.8137      2.00000
     17      -7.7318      2.00000
     18      -7.6550      2.00000
     19      -7.6409      2.00000
     20      -7.6058      2.00000
     21      -7.5693      2.00000
     22      -7.5514      2.00000
     23      -7.4965      2.00000
     24      -7.4768      2.00000
     25      -7.4541      2.00000
     26      -7.4025      2.00000
     27      -7.3416      2.00000
     28      -7.3164      2.00000
     29      -7.2874      2.00000
     30      -7.2356      2.00000
     31      -7.1797      2.00000
     32      -7.1579      2.00000
     33      -7.0983      2.00000
     34      -7.0702      2.00000
     35      -7.0514      2.00000
     36      -7.0353      2.00000
     37      -7.0050      2.00000
     38      -6.9834      2.00000
     39      -6.9688      2.00000
     40      -6.9392      2.00000
     41      -6.9112      2.00000
     42      -6.8879      2.00000
     43      -6.8615      2.00000
     44      -6.8348      2.00000
     45      -6.8071      2.00000
     46      -6.7906      2.00000
     47      -6.7613      2.00000
     48      -6.7344      2.00000
     49      -6.7054      2.00000
     50      -6.6881      2.00000
     51      -6.6635      2.00000
     52      -6.6349      2.00000
     53      -6.6073      2.00000
     54      -6.5863      2.00000
     55      -6.5669      2.00000
     56      -6.5423      2.00000
     57      -6.5070      2.00000
     58      -6.4851      2.00000
     59      -6.4627      2.00000
     60      -6.4462      2.00000
[...]
    322       3.9790      0.00000
    323       4.0170      0.00000
    324       4.0794      0.00000
    325       4.2662      0.00000
    326       4.3869      0.00000
    327       4.4810      0.00000
    328       4.5063      0.00000
    329       4.5580      0.00000
    330       4.6571      0.00000
    331       4.7728      0.00000
    332       4.8257      0.00000
    333       4.9069      0.00000
    334       4.9538      0.00000
    335       5.0272      0.00000
    336       5.0715      0.00000

 soft charge-density along one line, spin component           1
         0         1         2         3         4         5         6         7         8         9
 total charge-density along one line

------------------------ aborting loop because EDIFF is reached ----------------------------------------

 VOLUME and BASIS-vectors are now :
  energy-cutoff  :      400.00
  volume of cell :     2745.90
      direct lattice vectors                 reciprocal lattice vectors
    11.002581515  0.000000000  0.000000000     0.090887761 -0.052474073  0.000000000
     5.501290758  9.528515099  0.000000000     0.000000000  0.104948147  0.000000000
     0.000000000  0.000000000 26.191785094     0.000000000  0.000000000  0.038179910

  length of vectors
    11.002581515 11.002581515 26.191785094     0.104948147  0.104948147  0.038179910

 FORCES acting on ions
    electron-ion (+dipol)            ewald-force                    non-local-force                 convergence-correction
   0.107E+02 -.167E+02 0.251E+04   -.107E+02 0.173E+02 -.251E+04   -.816E-01 -.443E+00 -.667E-02   0.641E-03 0.966E-03 -.126E-02
   0.344E+01 0.792E+01 -.272E+04   -.769E+00 -.800E+01 0.272E+04   -.269E+01 0.774E-01 0.685E+00   0.764E-02 0.198E-02 -.242E-02
   0.231E+02 0.470E+02 0.248E+04   -.229E+02 -.471E+02 -.248E+04   -.142E+00 -.108E+00 -.250E+00   -.144E-02 -.321E-03 -.158E-02
   -.414E+02 0.595E+02 0.372E+03   0.415E+02 -.603E+02 -.372E+03   -.133E+00 0.829E+00 0.731E+00   0.362E-02 0.118E-02 -.716E-03
   -.594E+02 -.239E+02 0.244E+04   0.593E+02 0.243E+02 -.244E+04   0.263E+00 -.343E+00 -.713E-01   0.254E-02 -.407E-03 -.256E-02
   -.795E+01 -.404E+02 -.181E+04   0.945E+01 0.405E+02 0.180E+04   -.151E+01 -.102E+00 0.769E+00   0.118E-02 -.437E-02 -.652E-03
   -.553E+02 -.560E+02 0.354E+03   0.540E+02 0.564E+02 -.354E+03   0.119E+01 -.464E+00 -.615E+00   0.518E-02 -.334E-02 0.780E-04
   0.102E+02 -.103E+02 0.250E+04   -.103E+02 0.112E+02 -.250E+04   0.146E+00 -.560E+00 -.134E+00   -.536E-03 -.944E-03 -.730E-03
   0.329E+02 -.264E+02 0.241E+04   -.333E+02 0.260E+02 -.241E+04   0.254E+00 0.418E+00 0.384E+00   -.134E-03 -.804E-03 -.254E-03
   -.265E+02 -.368E+01 -.543E+03   0.262E+02 0.293E+01 0.543E+03   0.299E+00 0.753E+00 -.325E+00   0.824E-02 -.247E-02 0.548E-02
   -.516E+02 -.181E+02 -.159E+04   0.533E+02 0.182E+02 0.159E+04   -.167E+01 -.727E-01 0.283E+01   0.473E-02 0.510E-02 0.474E-02
   0.317E+02 0.848E+02 0.390E+03   -.313E+02 -.845E+02 -.390E+03   -.391E+00 -.262E+00 -.216E+00   -.861E-03 -.171E-02 0.116E-03
   -.135E+02 0.305E+01 0.425E+03   0.131E+02 -.445E+01 -.425E+03   0.425E+00 0.139E+01 0.929E-01   0.759E-03 0.484E-02 -.244E-02
   0.693E+02 0.107E+02 -.180E+04   -.714E+02 -.858E+01 0.180E+04   0.219E+01 -.214E+01 0.224E+01   -.932E-02 -.516E-02 0.335E-02
   -.106E+02 -.174E+02 0.252E+04   0.105E+02 0.176E+02 -.252E+04   0.871E-01 -.130E+00 0.150E+00   0.461E-03 0.166E-02 -.289E-04
   -.519E+01 -.346E+02 0.373E+03   0.411E+01 0.341E+02 -.371E+03   0.107E+01 0.428E+00 -.216E+01   0.335E-02 0.300E-02 -.626E-03
   -.328E+01 0.352E+01 0.250E+04   0.320E+01 -.354E+01 -.250E+04   0.304E-02 0.178E-02 -.397E+00   -.197E-03 -.226E-03 -.393E-02
   0.655E+02 0.382E+02 -.197E+04   -.669E+02 -.390E+02 0.197E+04   0.143E+01 0.826E+00 -.219E+00   -.447E-02 0.211E-02 -.644E-02
   0.312E+02 -.807E+02 0.344E+03   -.313E+02 0.808E+02 -.344E+03   0.840E-01 -.173E+00 0.300E+00   0.236E-02 0.180E-03 0.363E-02
   0.244E+02 -.414E+01 0.334E+03   -.235E+02 0.455E+01 -.334E+03   -.893E+00 -.415E+00 -.852E-01   -.690E-02 -.653E-03 0.333E-02
   -.169E+02 -.176E+02 0.313E+03   0.172E+02 0.177E+02 -.311E+03   -.291E+00 -.128E+00 -.255E+01   -.302E-02 0.199E-02 -.296E-02
   0.294E+02 0.249E+01 0.247E+04   -.289E+02 -.278E+01 -.247E+04   -.467E+00 0.234E+00 0.348E+00   -.222E-02 -.789E-03 -.189E-02
   0.789E+02 0.165E+01 0.389E+02   -.779E+02 -.135E+01 -.376E+02   -.943E+00 -.286E+00 -.125E+01   -.226E-02 -.354E-02 0.818E-02
   -.103E+02 -.293E+01 0.250E+04   0.105E+02 0.340E+01 -.250E+04   -.115E+00 -.355E+00 -.162E+00   -.587E-03 0.926E-04 0.569E-04
   -.318E+02 0.107E+03 -.165E+04   0.326E+02 -.113E+03 0.167E+04   -.860E+00 0.674E+01 -.253E+02   -.454E-03 0.467E-02 -.477E-03
   -.115E+03 0.751E+02 -.174E+04   0.124E+03 -.811E+02 0.177E+04   -.937E+01 0.594E+01 -.255E+02   -.271E-03 0.751E-03 -.487E-02
   -.304E+02 -.110E+03 -.167E+04   0.366E+02 0.118E+03 0.170E+04   -.616E+01 -.831E+01 -.253E+02   -.353E-02 -.411E-02 0.240E-03
   -.148E+02 -.381E+02 -.164E+04   0.192E+02 0.388E+02 0.166E+04   -.441E+01 -.627E+00 -.275E+02   -.211E-02 -.501E-03 0.127E-02
   0.168E+02 0.548E+02 -.161E+04   -.185E+02 -.544E+02 0.164E+04   0.167E+01 -.332E+00 -.293E+02   0.253E-02 0.232E-05 0.439E-03
   0.307E+02 0.185E+02 -.170E+04   -.280E+02 -.139E+02 0.173E+04   -.268E+01 -.465E+01 -.272E+02   -.264E-04 0.498E-03 0.124E-02
   0.492E+02 -.114E+03 -.174E+04   -.584E+02 0.121E+03 0.177E+04   0.922E+01 -.770E+01 -.232E+02   0.162E-02 0.694E-03 0.311E-02
   0.442E+02 0.287E+01 -.165E+04   -.473E+02 -.265E+01 0.167E+04   0.314E+01 -.213E+00 -.265E+02   0.981E-03 0.107E-02 0.105E-02
   -.269E+02 0.215E+02 0.229E+04   0.270E+02 -.217E+02 -.229E+04   0.152E-01 0.642E-01 -.174E+01   0.901E-03 0.182E-02 -.211E-02
   0.540E+01 0.202E+01 0.228E+04   -.527E+01 -.205E+01 -.227E+04   -.183E+00 -.273E-01 -.188E+01   -.130E-02 -.105E-02 -.144E-02
   -.819E+02 0.165E+02 -.157E+04   0.813E+02 -.166E+02 0.157E+04   0.636E+00 0.899E-02 -.121E+01   -.259E-03 0.693E-02 -.246E-02
   0.521E+01 -.188E+02 0.227E+04   -.503E+01 0.189E+02 -.227E+04   -.108E+00 -.525E-01 -.141E+01   -.123E-02 -.261E-03 0.480E-03
   0.205E+01 0.999E+02 -.179E+04   -.153E+01 -.985E+02 0.179E+04   -.519E+00 -.135E+01 -.140E+01   -.726E-02 -.671E-02 0.116E-01
   0.134E+02 -.950E+02 -.157E+04   -.136E+02 0.944E+02 0.157E+04   0.192E+00 0.649E+00 -.434E+00   0.283E-02 0.556E-02 -.409E-02
   0.267E+02 0.493E+01 0.305E+03   -.267E+02 -.503E+01 -.304E+03   0.242E-02 0.105E+00 -.552E+00   -.190E-02 -.214E-02 0.399E-03
   0.350E+02 -.124E+03 -.225E+04   -.347E+02 0.124E+03 0.225E+04   -.388E+00 0.870E+00 -.633E+00   0.121E-02 -.713E-02 0.108E-01
   0.100E+03 0.451E+02 -.230E+04   -.982E+02 -.436E+02 0.230E+04   -.188E+01 -.151E+01 -.303E+00   0.103E-01 -.300E-02 0.604E-02
   0.346E+01 0.211E+02 0.229E+04   -.348E+01 -.212E+02 -.229E+04   0.570E-01 -.215E-01 -.205E+01   -.156E-03 0.125E-02 -.264E-02
   -.507E+01 0.903E+02 -.159E+04   0.488E+01 -.905E+02 0.159E+04   0.179E+00 0.162E+00 -.123E+01   0.446E-02 -.184E-02 0.398E-02
   0.509E+01 -.987E-01 0.281E+03   -.416E+01 0.561E+00 -.281E+03   -.925E+00 -.454E+00 -.373E+00   -.435E-03 -.499E-02 0.360E-03
   -.591E+01 -.346E+02 0.228E+04   0.584E+01 0.345E+02 -.227E+04   0.450E-01 0.460E-01 -.158E+01   0.125E-02 -.151E-03 -.132E-03
   -.410E+01 -.314E+01 0.228E+04   0.388E+01 0.283E+01 -.228E+04   0.176E+00 0.172E+00 -.170E+01   0.127E-02 -.981E-03 -.181E-02
   0.164E+01 0.600E+01 0.352E+03   -.155E+01 -.632E+01 -.353E+03   -.942E-01 0.309E+00 0.844E+00   0.994E-03 -.240E-02 -.163E-02
   0.251E+02 0.112E+03 -.163E+04   -.247E+02 -.111E+03 0.163E+04   -.417E+00 -.351E+00 -.151E+01   0.537E-03 -.585E-02 0.164E-02
   0.274E+02 -.690E+02 -.153E+04   -.274E+02 0.690E+02 0.153E+04   -.514E-01 -.243E-01 0.358E+00   -.205E-02 -.156E-02 0.236E-02
   -.717E+02 0.850E+00 0.352E+03   0.715E+02 -.104E+01 -.350E+03   0.257E+00 0.188E+00 -.129E+01   0.259E-02 0.116E-03 -.349E-03
   -.702E+02 -.414E+02 -.150E+04   0.697E+02 0.411E+02 0.150E+04   0.485E+00 0.317E+00 -.253E+01   0.810E-02 -.552E-02 0.662E-02
   0.211E+01 0.630E+02 0.224E+04   -.221E+01 -.630E+02 -.223E+04   0.398E-01 -.160E+00 -.146E+01   0.504E-03 0.122E-03 -.546E-03
   0.160E+02 -.844E+01 0.276E+03   -.164E+02 0.838E+01 -.274E+03   0.369E+00 0.712E-01 -.244E+01   0.323E-02 -.227E-02 -.132E-02
   0.221E+02 0.306E+02 0.354E+03   -.221E+02 -.308E+02 -.354E+03   0.781E-01 0.202E+00 -.251E+00   -.491E-03 0.112E-02 0.334E-02
   -.830E+01 -.828E+02 -.160E+04   0.844E+01 0.824E+02 0.160E+04   -.150E+00 0.387E+00 -.281E+01   0.458E-02 -.109E-02 -.683E-02
   -.609E+02 0.733E+02 -.172E+04   0.607E+02 -.729E+02 0.172E+04   0.238E+00 -.339E+00 -.911E+00   -.447E-02 -.382E-02 0.813E-02
   0.133E+02 0.109E+02 0.238E+03   0.931E-12 -.227E-12 -.477E-11   -.133E+02 -.109E+02 -.238E+03   0.307E-01 -.324E-01 0.329E-01

 POSITION                                       TOTAL-FORCE (eV/Angst)
      1.37532      0.79404     10.00000        -0.097905      0.227982     -0.224885
     12.46910      7.16972     16.18732        -0.005768      0.001343      0.011371
      5.50129      7.94043     10.00000         0.022058     -0.260520     -0.262901
     12.40159      8.55804     12.40161        -0.004312      0.006473     -0.007233
     12.37790      5.55830     10.00000         0.181143      0.126642     -0.087432
     13.79665      9.23512     14.81438        -0.010921      0.003601      0.004825
     12.37204      3.91693     12.45203        -0.007922      0.001249     -0.001008
      9.62726      0.79404     10.00000        -0.003698      0.371845     -0.107000
      4.12597      5.55830     10.00000        -0.141350      0.045514      0.009314
     13.60861      6.26815     13.60203         0.001252      0.002139     -0.006717
      9.86403      7.07044     14.72197        -0.002140      0.007871     -0.001350
     15.11329      8.60720     12.39875        -0.003874      0.006501     -0.004056
      9.63825      8.61057     12.37087         0.003411     -0.000937      0.002606
      8.24324      4.68816     14.87280        -0.002191     -0.000375     -0.001587
      4.12597      0.79404     10.00000         0.056251      0.084670     -0.365964
      2.72998      1.52083     12.43877        -0.000274     -0.000501      0.001672
      9.62726      5.55830     10.00000        -0.083670     -0.015622      0.000407
      6.81573      2.19514     14.98159         0.003361      0.001707      0.007242
      4.08787      4.01847     12.44781         0.002783      0.004862     -0.006884
      6.88072      3.92192     12.48128         0.010375     -0.006738     -0.005572
      5.52731      1.52199     12.50595         0.007886      0.000153      0.000238
      6.87661      5.55830     10.00000         0.046570     -0.054384     -0.025178
      5.46828      6.33256     12.85515        -0.002985      0.005859     -0.012665
      6.87661      0.79404     10.00000         0.052445      0.124114     -0.147985
      2.89006      2.76518     16.17139        -0.000042      0.006043      0.005298
      4.47235      5.23364     16.65739        -0.002696     -0.007920     -0.002717
      5.71219      8.14803     16.24500         0.008648      0.003011     -0.003609
      8.41986      8.02198     16.03286        -0.011775     -0.000087     -0.005095
     11.07245      2.98902     15.95235        -0.005761      0.005642     -0.002366
      8.30247      2.83071     16.22463         0.004705      0.007120     -0.002200
     11.26079      8.73406     16.64491        -0.002001     -0.003864     -0.008784
      9.90135      5.45287     16.10540         0.000120      0.010749      0.000508
     11.00258      7.94043     10.00000         0.110424     -0.167509      0.020943
      8.25194      3.17617     10.00000        -0.061709     -0.066956      0.329010
      4.18511      2.34346     14.76876        -0.000965     -0.008055     -0.002223
      5.50129      3.17617     10.00000         0.067861     -0.022391      0.290930
      6.93271      7.00685     15.15537        -0.001448      0.008126     -0.012570
      8.32719      9.47117     14.72622         0.004701      0.003555      0.003783
      8.23969      6.26426     12.48967        -0.007412      0.001779      0.002152
      4.11775      7.05480     15.89043        -0.006120      0.006008     -0.005917
     13.68334      4.78035     15.95622         0.003352      0.006559     -0.002688
      8.25194      7.94043     10.00000         0.036967     -0.183794      0.109350
      1.48138      2.18099     14.85906        -0.003030     -0.001297      0.002274
      8.27364      1.51002     12.49124        -0.000457      0.003529      0.000186
      2.75065      3.17617     10.00000        -0.023525      0.037299      0.184181
     11.00258      3.17617     10.00000        -0.045841     -0.138949      0.256813
      9.63391      3.87650     12.39807        -0.010059     -0.006542      0.003597
      9.63043      2.13095     14.90354        -0.009531      0.003166     -0.000360
      5.53496      9.39182     14.72063         0.010394      0.002031      0.005007
     11.03654      6.22914     12.42362        -0.001016     -0.006390      0.002617
     11.22455      4.65522     14.87582        -0.005961      0.002747     -0.008654
     13.75323      7.94043     10.00000        -0.061801     -0.190738      0.071802
     10.98783      1.51062     12.53201        -0.006572      0.007131      0.000213
      6.87713      8.62933     12.39846         0.000546     -0.002155      0.001175
     11.03762      9.45219     14.86756        -0.005303     -0.000798      0.002818
      5.53648      4.65201     15.06423         0.004785      0.009507     -0.004736
    total drift:                                0.027716     -0.006049     -0.050467

  FREE ENERGIE OF THE ION-ELECTRON SYSTEM (eV)
  free  energy   TOTEN  =      -232.83794600 eV

  energy  without entropy=     -232.64995443  energy(sigma->0) =     -232.74395021

 d Force = 0.3740095E-03[ 0.259E-03, 0.489E-03]  d Energy = 0.3820007E-03-0.799E-05
 d Force =-0.1169363E+02[-0.117E+02,-0.117E+02]  d Ewald  =-0.1169363E+02 0.193E-05

 stress matrix after NEB project (eV)
      0.00000      0.00000      0.00000
      0.00000      0.00000      0.00000
      0.00000      0.00000      0.00000
  FORCES: max atom, RMS     0.015037    0.007931
  FORCE total and by dimension    0.059350    0.012665
  Stress total and by dimension    0.000000    0.000000
 Conjugate gradient step on ions:
 trial-energy change:   -0.000382  1 .order   -0.000374   -0.000489   -0.000259
  (g-gl).g = 0.271E-03      g.g   = 0.303E-03  gl.gl    = 0.318E-03
 g(Force)  = 0.303E-03   g(Stress)= 0.000E+00 ortho     = 0.331E-04
 gamma     =   0.85252
 trial     =   1.47551
 opt step  =   2.67851  (harmonic =   3.13296) maximal distance =0.00395238
 next E    =  -232.838056   (d E  =  -0.00049)

 reached required accuracy - stopping structural energy minimisation