 vasp.5.4.1 24Jun15 (build Mar 14 2019 10:18:33) complex

 executed on INTEL-19.0.2+OPENMPI date 2022.07.11  15:06:27

 INCAR:
 POTCAR:    PAW_PBE Au 04Oct2007
 POTCAR:    PAW_PBE Pd 04Jan2005
 POTCAR:    PAW_PBE Au 04Oct2007

 POTCAR:    PAW_PBE Pd 04Jan2005

 Optimization of the real space projectors (new method)

 maximal supplied QI-value         = 15.12
 optimisation between [QCUT,QGAM] = [ 10.13, 20.41] = [ 28.73,116.64] Ry
 Optimized for a Real-space Cutoff    1.51 Angstroem

   l    n(q)    QCUT    max X(q) W(low)/X(q) W(high)/X(q)  e(spline)
   2      8    10.129    60.898    0.46E-03    0.46E-03    0.14E-06
   2      8    10.129    58.894    0.47E-03    0.47E-03    0.14E-06
   0      9    10.129   109.617    0.16E-03    0.11E-03    0.54E-07
   0      9    10.129    75.026    0.15E-03    0.11E-03    0.52E-07
   1      9    10.129    16.344    0.96E-04    0.15E-03    0.14E-06
   1      9    10.129    10.160    0.81E-04    0.12E-03    0.11E-06
 Optimization of the real space projectors (new method)

 maximal supplied QI-value         = 14.36
 optimisation between [QCUT,QGAM] = [ 10.20, 20.39] = [ 29.12,116.47] Ry
 Optimized for a Real-space Cutoff    1.51 Angstroem

   l    n(q)    QCUT    max X(q) W(low)/X(q) W(high)/X(q)  e(spline)
   2      8    10.197    59.108    0.26E-03    0.14E-03    0.96E-07
   2      8    10.197    58.101    0.27E-03    0.14E-03    0.98E-07
   0      9    10.197   102.235    0.54E-04    0.60E-05    0.72E-07
   0      9    10.197    58.388    0.52E-04    0.60E-05    0.68E-07
   1      9    10.197    22.191    0.18E-03    0.25E-03    0.79E-07
   1      9    10.197    15.590    0.15E-03    0.21E-03    0.69E-07
  PAW_PBE Au 04Oct2007                  :
  PAW_PBE Pd 04Jan2005                  :

 POSCAR: Au Pd
  positions in cartesian coordinates
 exchange correlation table for  LEXCH =        8
   RHO(1)=    0.500       N(1)  =     2000
   RHO(2)=  100.500       N(2)  =     4000

 VTST: version 3.2, (02/03/18)

 CHAIN: initializing optimizer

 OPT: Using VASP Conjugate-Gradient optimizer
 CHAIN: Read ICHAIN            0

 POSCAR: Au Pd
  positions in cartesian coordinates

 ion  position               nearest neighbor table
   1  0.250  0.750  0.592-   2 2.75  31 2.75  10 2.75  21 2.75  25 2.75   4 2.75   6 2.75  41 2.75
                             5 2.75
   2  0.167  0.917  0.500-  14 2.75   1 2.75  21 2.75   5 2.75  22 2.75  31 2.75  39 2.75   3 2.75
                            42 2.75  32 2.75  10 2.75  35 2.75
   3  0.417  0.917  0.500-  35 2.75   6 2.75  10 2.75  16 2.75  31 2.75  11 2.75  39 2.75   2 2.75
                            12 2.75  40 2.75  13 2.75  24 2.75
   4  0.250  0.500  0.592-   5 2.75  20 2.75   9 2.75   1 2.75  37 2.75  41 2.75  25 2.75  43 2.75
                             8 2.75
   5  0.167  0.667  0.500-  17 2.75   4 2.75  41 2.75   2 2.75  20 2.75   8 2.75  42 2.75  31 2.75
                            44 2.75  14 2.75  36 2.75   1 2.75
   6  0.500  0.750  0.592-   3 2.75  16 2.75  13 2.75  10 2.75  18 2.75  25 2.75   1 2.75  48 2.75
                            31 2.75
   7  0.833  0.083  0.408-  22 2.75  14 2.75  27 2.75  29 2.75  33 2.75  32 2.75  34 2.75  42 2.75
                            26 2.75
   8  0.167  0.417  0.500-  46 2.75  37 2.75  43 2.75  39 2.75  11 2.75  44 2.75   5 2.75  20 2.75
                            19 2.75  17 2.75   4 2.75  38 2.75
   9  0.500  0.250  0.592-  20 2.75  26 2.75   4 2.75  25 2.75  13 2.75  30 2.75  28 2.75  37 2.75
                            11 2.75
  10  0.250  0.000  0.592-  39 2.75   3 2.75   6 2.75  37 2.75   1 2.75  45 2.75  21 2.75  13 2.75
                             2 2.75
  11  0.417  0.167  0.500-  40 2.75  13 2.75  37 2.75   3 2.75  20 2.75   8 2.75  12 2.75  39 2.75
                            26 2.75  38 2.75   9 2.75  34 2.75
  12  0.667  0.917  0.500-  24 2.75  48 2.75  13 2.75  11 2.75  26 2.75  44 2.75  16 2.75   3 2.75
                            42 2.75  34 2.75  29 2.75  30 2.75
  13  0.500  0.000  0.592-  11 2.75  12 2.75   6 2.75   9 2.75  37 2.75  48 2.75  10 2.75  30 2.75
                             3 2.75
  14  0.083  0.833  0.408-   2 2.75   7 2.75  17 2.75  32 2.75  36 2.75  35 2.75  29 2.75   5 2.75
                            42 2.75
  15  0.833  0.583  0.408-  44 2.75  27 2.75  29 2.75  24 2.75  46 2.75  17 2.75  47 2.75  19 2.75
                            16 2.75
  16  0.667  0.667  0.500-  47 2.75  18 2.75   6 2.75   3 2.75  19 2.75  23 2.75  12 2.75  44 2.75
                            31 2.75  24 2.75  15 2.75  48 2.75
  17  0.083  0.583  0.408-   5 2.75  14 2.75  29 2.75  38 2.75  46 2.75  15 2.75  36 2.75   8 2.75
                            44 2.75
  18  0.750  0.500  0.592-  16 2.75  19 2.75   6 2.75  28 2.75  45 2.75  48 2.75  25 2.75  43 2.75
                            23 2.75
  19  0.917  0.417  0.500-  27 2.75  45 2.75  18 2.75  16 2.75  39 2.75  44 2.75  22 2.75   8 2.75
                            23 2.75  15 2.75  43 2.75  46 2.75
  20  0.417  0.417  0.500-  38 2.75   9 2.75   4 2.75  11 2.75  26 2.75  31 2.75   5 2.75  23 2.75
                             8 2.75  36 2.75  25 2.75  33 2.75
  21  0.000  0.000  0.592-  22 2.75   2 2.75   1 2.75  28 2.75  41 2.75  45 2.75  10 2.75  30 2.75
                            42 2.75
  22  0.917  0.167  0.500-   7 2.75  21 2.75  28 2.75   2 2.75  23 2.75  19 2.75  42 2.75  39 2.75
                            26 2.75  27 2.75  32 2.75  45 2.75
  23  0.667  0.417  0.500-  33 2.75  28 2.75  25 2.75  26 2.75  22 2.75  31 2.75  16 2.75  19 2.75
                            20 2.75  47 2.75  18 2.75  27 2.75
  24  0.583  0.833  0.408-  12 2.75  15 2.75  34 2.75  40 2.75  47 2.75  29 2.75  35 2.75  16 2.75
                             3 2.75
  25  0.500  0.500  0.592-  31 2.75  23 2.75   9 2.75   1 2.75  28 2.75   6 2.75  18 2.75   4 2.75
                            20 2.75
  26  0.667  0.167  0.500-  34 2.75  30 2.75   9 2.75  23 2.75  12 2.75  20 2.75  42 2.75  11 2.75
                            22 2.75  33 2.75   7 2.75  28 2.75
  27  0.833  0.333  0.408-  19 2.75  15 2.75   7 2.75  32 2.75  47 2.75  46 2.75  33 2.75  22 2.75
                            23 2.75
  28  0.750  0.250  0.592-  23 2.75  22 2.75  18 2.75  21 2.75  25 2.75  30 2.75   9 2.75  45 2.75
                            26 2.75
  29  0.833  0.833  0.408-  42 2.75  15 2.75  17 2.75  34 2.75   7 2.75  14 2.75  24 2.75  44 2.75
                            12 2.75
  30  0.750  0.000  0.592-  26 2.75  42 2.75  28 2.75  41 2.75   9 2.75  48 2.75  21 2.75  13 2.75
                            12 2.75
  31  0.417  0.667  0.500-  36 2.75  25 2.75   1 2.75  20 2.75  23 2.75   2 2.75   3 2.75   5 2.75
                            16 2.75  35 2.75   6 2.75  47 2.75
  32  0.083  0.083  0.408-  39 2.75  27 2.75  35 2.75  14 2.75  46 2.75  40 2.75   7 2.75   2 2.75
                            22 2.75
  33  0.583  0.333  0.408-  23 2.75   7 2.75  34 2.75  36 2.75  47 2.75  38 2.75  27 2.75  26 2.75
                            20 2.75
  34  0.583  0.083  0.408-  26 2.75  24 2.75  29 2.75  33 2.75  38 2.75   7 2.75  40 2.75  12 2.75
                            11 2.75
  35  0.333  0.833  0.408-   3 2.75  32 2.75  36 2.75  40 2.75  47 2.75  14 2.75  24 2.75  31 2.75
                             2 2.75
  36  0.333  0.583  0.408-  31 2.75  14 2.75  33 2.75  35 2.75  38 2.75  17 2.75  47 2.75  20 2.75
                             5 2.75
  37  0.250  0.250  0.592-   8 2.75  11 2.75  10 2.75   4 2.75  13 2.75  43 2.75   9 2.75  45 2.75
                            39 2.75
  38  0.333  0.333  0.408-  20 2.75  17 2.75  34 2.75  36 2.75  40 2.75  33 2.75  46 2.75  11 2.75
                             8 2.75
  39  0.167  0.167  0.500-  32 2.75  10 2.75  45 2.75   2 2.75  19 2.75   3 2.75   8 2.75  11 2.75
                            22 2.75  46 2.75  37 2.75  40 2.75
  40  0.333  0.083  0.408-  11 2.75  24 2.75  35 2.75  38 2.75  46 2.75  34 2.75  32 2.75   3 2.75
                            39 2.75
  41  0.000  0.750  0.592-  42 2.75   5 2.75  21 2.75  30 2.75   4 2.75  43 2.75   1 2.75  48 2.75
                            44 2.75
  42  0.917  0.917  0.500-  29 2.75  41 2.75  30 2.75   5 2.75  22 2.75  26 2.75  44 2.75   2 2.75
                            12 2.75   7 2.75  14 2.75  21 2.75
  43  0.000  0.500  0.592-  44 2.75   8 2.75  41 2.75  37 2.75  45 2.75  48 2.75  18 2.75   4 2.75
                            19 2.75
  44  0.917  0.667  0.500-  15 2.75  43 2.75  48 2.75  19 2.75  42 2.75  12 2.75   8 2.75   5 2.75
                            16 2.75  29 2.75  41 2.75  17 2.75
  45  0.000  0.250  0.592-  19 2.75  39 2.75  10 2.75  21 2.75  18 2.75  43 2.75  28 2.75  37 2.75
                            22 2.75
  46  0.083  0.333  0.408-   8 2.75  15 2.75  17 2.75  32 2.75  40 2.75  38 2.75  27 2.75  39 2.75
                            19 2.75
  47  0.583  0.583  0.408-  16 2.75  24 2.75  27 2.75  33 2.75  35 2.75  15 2.75  36 2.75  23 2.75
                            31 2.75
  48  0.750  0.750  0.592-  12 2.75  44 2.75  18 2.75  30 2.75  43 2.75  13 2.75   6 2.75  41 2.75
                            16 2.75

  LATTYP: Found a hexagonal cell.
 ALAT       =    11.0025815153
 C/A-ratio  =     2.2260035120

  Lattice vectors:

 A1 = (   5.5012907576,  -9.5285150994,   0.0000000000)
 A2 = ( -11.0025815153,   0.0000000000,   0.0000000000)
 A3 = (   0.0000000000,   0.0000000000, -24.4917850943)

Analysis of symmetry for initial positions (statically):
 Subroutine PRICEL returns:
 Original cell was already a primitive cell.

 Routine SETGRP: Setting up the symmetry group for a
 hexagonal supercell.

 Subroutine GETGRP returns: Found  1 space group operations
 (whereof  1 operations were pure point group operations)
 out of a pool of 24 trial point group operations.

The static configuration has the point symmetry C_1 .

Analysis of symmetry for dynamics (positions and initial velocities):
 Subroutine PRICEL returns:
 Original cell was already a primitive cell.

 Routine SETGRP: Setting up the symmetry group for a
 hexagonal supercell.

 Subroutine GETGRP returns: Found  1 space group operations
 (whereof  1 operations were pure point group operations)
 out of a pool of 24 trial point group operations.

The dynamic configuration has the point symmetry C_1 .

 KPOINTS: Automatic mesh

Automatic generation of k-mesh.
Space group operators:
 irot       det(A)        alpha          n_x          n_y          n_z        tau_x        tau_y        tau_z
    1     1.000000     0.000000     1.000000     0.000000     0.000000     0.000000     0.000000     0.000000

 Subroutine IBZKPT returns following result:

 Found      6 irreducible k-points:

 Following reciprocal coordinates:
            Coordinates               Weight
  0.250000  0.250000  0.000000     16.000000
  0.000000  0.250000  0.000000     16.000000
 -0.250000  0.000000  0.000000     16.000000
 -0.250000  0.250000  0.000000     16.000000
  0.500000 -0.250000  0.000000     16.000000
 -0.250000  0.500000  0.000000     16.000000

 Following cartesian coordinates:
            Coordinates               Weight
  0.022722  0.013119  0.000000     16.000000
  0.000000  0.026237  0.000000     16.000000
[...]
 dipolmoment           0.000000      0.000000      0.014454 electrons x Angstroem
 Tr[quadrupol]    -10292.660364

 energy correction for charged system         0.000000 eV
 dipol+quadrupol energy correction           -0.000007 eV
 added-field ion interaction         -0.007673 eV  (added to PSCEN)

  free energy =  -0.191498116291E+03  energy without entropy=  -0.191295583790E+03

 average (electrostatic) potential at core
  the test charge radii are     1.2098  1.1199
  (the norm of the test charge is              1.0000)
       1 -73.9616       2 -74.1727       3 -74.1819       4 -73.8994       5 -74.1747
       6 -73.9976       7 -73.8719       8 -74.2080       9 -73.8808      10 -73.9533
      11 -74.1852      12 -74.1842      13 -73.9291      14 -73.8971      15 -73.9105
      16 -74.1967      17 -73.8852      18 -73.8560      19 -74.1777      20 -74.1944
      21 -73.9279      22 -74.1632      23 -74.2059      24 -73.8639      25 -80.8208
      26 -80.8924      27 -80.8116      28 -80.8087      29 -80.7882      30 -80.8449
      31 -80.8731      32 -80.8197      33 -80.8482      34 -80.8490      35 -80.8449
      36 -80.8808      37 -80.7743      38 -80.8447      39 -80.8670      40 -80.8563
      41 -80.8568      42 -80.8463      43 -80.8261      44 -80.8601      45 -80.8046
      46 -80.7904      47 -80.8722      48 -80.8618

 E-fermi :  -1.1036     XC(G=0):  -4.5513     alpha+bet : -4.5211

[...]

 k-point     6 :      -0.2500    0.5000    0.0000
  band No.  band energies     occupation
      1      -8.6573      2.00000
      2      -8.2879      2.00000
      3      -8.1021      2.00000
      4      -7.3651      2.00000
      5      -7.2025      2.00000
      6      -7.0948      2.00000
      7      -7.0541      2.00000
      8      -6.9909      2.00000
      9      -6.9251      2.00000
     10      -6.8865      2.00000
     11      -6.8384      2.00000
     12      -6.8059      2.00000
     13      -6.7131      2.00000
     14      -6.6975      2.00000
     15      -6.6639      2.00000
     16      -6.6209      2.00000
     17      -6.6059      2.00000
     18      -6.5570      2.00000
     19      -6.4932      2.00000
     20      -6.4381      2.00000
     21      -6.4252      2.00000
     22      -6.3823      2.00000
     23      -6.3550      2.00000
     24      -6.3255      2.00000
     25      -6.3079      2.00000
     26      -6.2755      2.00000
     27      -6.2588      2.00000
     28      -6.2367      2.00000
     29      -6.2236      2.00000
     30      -6.1908      2.00000
     31      -6.1617      2.00000
     32      -6.1130      2.00000
     33      -6.1065      2.00000
     34      -6.0848      2.00000
     35      -6.0604      2.00000
     36      -6.0549      2.00000
     37      -6.0105      2.00000
     38      -5.9783      2.00000
     39      -5.9641      2.00000
     40      -5.9127      2.00000
     41      -5.8745      2.00000
     42      -5.8623      2.00000
     43      -5.8355      2.00000
     44      -5.7843      2.00000
     45      -5.7637      2.00000
     46      -5.7371      2.00000
     47      -5.7188      2.00000
     48      -5.6841      2.00000
     49      -5.6724      2.00000
     50      -5.6597      2.00000
     51      -5.6141      2.00000
     52      -5.5885      2.00000
     53      -5.5689      2.00000
     54      -5.5208      2.00000
     55      -5.5047      2.00000
     56      -5.4656      2.00000
     57      -5.4291      2.00000
     58      -5.4211      2.00000
     59      -5.3855      2.00000
     60      -5.3332      2.00000
[...]
    292       4.2056      0.00000
    293       4.4838      0.00000
    294       4.5034      0.00000
    295       4.5739      0.00000
    296       4.6364      0.00000
    297       4.6795      0.00000
    298       4.8023      0.00000
    299       4.8352      0.00000
    300       4.9117      0.00000
    301       4.9658      0.00000
    302       5.0492      0.00000
    303       5.0799      0.00000
    304       5.1117      0.00000
    305       5.2316      0.00000
    306       5.2403      0.00000

 soft charge-density along one line, spin component           1
         0         1         2         3         4         5         6         7         8         9
 total charge-density along one line

------------------------ aborting loop because EDIFF is reached ----------------------------------------

 VOLUME and BASIS-vectors are now :
  energy-cutoff  :      400.00
  volume of cell :     2567.68
      direct lattice vectors                 reciprocal lattice vectors
    11.002581515  0.000000000  0.000000000     0.090887761 -0.052474073  0.000000000
     5.501290758  9.528515099  0.000000000     0.000000000  0.104948147  0.000000000
     0.000000000  0.000000000 24.491785094     0.000000000  0.000000000  0.040830017

  length of vectors
    11.002581515 11.002581515 24.491785094     0.104948147  0.104948147  0.040830017

 FORCES acting on ions
    electron-ion (+dipol)            ewald-force                    non-local-force                 convergence-correction
   0.210E+02 -.212E+01 -.227E+04   -.208E+02 0.148E+01 0.227E+04   -.163E+00 0.635E+00 -.227E-01   0.291E-02 -.395E-03 -.251E-03
   0.245E+01 0.758E+01 0.721E+01   -.206E+01 -.750E+01 -.838E+01   -.390E+00 -.860E-01 0.117E+01   0.289E-02 -.627E-03 -.193E-02
   -.714E+01 0.659E+01 -.749E+01   0.620E+01 -.651E+01 0.640E+01   0.938E+00 -.784E-01 0.110E+01   -.156E-02 -.213E-02 -.605E-02
   0.227E+02 -.942E+01 -.230E+04   -.232E+02 0.935E+01 0.230E+04   0.487E+00 0.841E-01 -.187E+00   0.395E-02 -.961E-03 0.155E-03
   -.162E+01 -.935E+00 0.345E+02   0.132E+01 0.150E+01 -.345E+02   0.306E+00 -.554E+00 -.673E-01   0.483E-02 0.358E-03 -.319E-02
   -.173E+02 0.433E+01 -.226E+04   0.172E+02 -.492E+01 0.226E+04   0.127E+00 0.588E+00 -.384E-01   -.165E-02 -.172E-03 -.298E-02
   0.106E+01 -.194E+02 0.229E+04   -.157E+01 0.196E+02 -.229E+04   0.514E+00 -.216E+00 -.320E+00   0.200E-02 0.231E-02 0.136E-02
   -.764E+01 -.103E+02 0.208E+02   0.684E+01 0.999E+01 -.207E+02   0.799E+00 0.332E+00 -.730E-01   0.254E-02 -.461E-02 0.595E-03
   -.987E+01 0.949E+01 -.229E+04   0.106E+02 -.954E+01 0.229E+04   -.681E+00 0.489E-01 -.459E-01   -.569E-03 0.162E-02 -.330E-02
   0.727E+01 -.101E+02 -.228E+04   -.722E+01 0.116E+02 0.228E+04   -.510E-01 -.153E+01 0.719E-02   -.162E-03 -.216E-02 -.181E-02
   -.533E+01 0.643E+01 -.266E+02   0.507E+01 -.637E+01 0.255E+02   0.256E+00 -.486E-01 0.107E+01   -.206E-03 0.263E-02 -.999E-03
   0.128E+02 0.179E+01 0.589E+02   -.113E+02 -.185E+01 -.589E+02   -.149E+01 0.610E-01 -.508E-01   -.344E-02 -.163E-02 0.206E-02
   -.213E+02 0.891E+01 -.229E+04   0.218E+02 -.891E+01 0.229E+04   -.429E+00 0.264E-03 -.145E+00   -.271E-02 0.145E-02 0.445E-02
   -.219E+02 -.265E+01 0.232E+04   0.220E+02 0.274E+01 -.232E+04   -.170E+00 -.879E-01 -.124E+00   0.258E-02 -.108E-02 0.252E-02
   0.155E+02 0.136E+02 0.232E+04   -.154E+02 -.139E+02 -.232E+04   -.783E-01 0.314E+00 -.114E+00   -.355E-02 0.685E-03 0.973E-03
   0.149E+01 -.441E+01 0.339E+02   -.153E+01 0.452E+01 -.338E+02   0.375E-01 -.107E+00 -.663E-01   -.325E-02 -.586E-04 -.308E-02
   -.182E+02 0.178E+02 0.233E+04   0.181E+02 -.181E+02 -.233E+04   0.105E+00 0.307E+00 -.167E+00   0.269E-02 0.103E-02 -.287E-02
   -.204E+02 0.215E+01 -.230E+04   0.206E+02 -.261E+01 0.230E+04   -.224E+00 0.469E+00 -.214E+00   -.124E-02 -.354E-02 0.420E-02
   0.570E+01 -.117E+02 0.326E+02   -.486E+01 0.114E+02 -.326E+02   -.838E+00 0.291E+00 0.655E-01   -.490E-02 -.387E-02 0.140E-02
   0.644E+01 -.586E+00 -.343E+02   -.567E+01 0.817E+00 0.332E+02   -.775E+00 -.238E+00 0.109E+01   0.124E-02 -.192E-02 -.171E-02
   0.235E+02 0.158E+01 -.224E+04   -.245E+02 -.135E+01 0.224E+04   0.963E+00 -.238E+00 0.134E+00   0.198E-02 0.523E-02 0.276E-02
   0.443E+01 0.959E+01 0.224E+02   -.442E+01 -.977E+01 -.224E+02   -.134E-01 0.185E+00 0.349E-01   -.863E-03 0.467E-02 0.604E-03
   -.344E+01 -.638E+01 -.148E+02   0.266E+01 0.639E+01 0.144E+02   0.787E+00 -.118E-01 0.450E+00   -.392E-03 -.247E-02 -.348E-02
   0.204E+02 -.116E+02 0.234E+04   -.206E+02 0.120E+02 -.234E+04   0.201E+00 -.390E+00 0.228E+00   -.479E-02 -.188E-02 -.125E-02
   -.552E+01 0.680E+01 -.200E+04   0.562E+01 -.680E+01 0.200E+04   -.105E+00 0.286E-02 0.140E+01   0.104E-02 -.241E-02 0.260E-02
   0.176E+01 0.229E+01 0.185E+02   -.166E+01 -.261E+01 -.185E+02   -.990E-01 0.322E+00 0.293E-01   0.191E-02 0.410E-02 0.177E-02
   0.956E+01 0.252E+01 0.202E+04   -.941E+01 -.245E+01 -.202E+04   -.154E+00 -.675E-01 -.138E+01   -.157E-02 0.163E-03 -.349E-02
   -.359E+01 0.995E+01 -.198E+04   0.337E+01 -.101E+02 0.198E+04   0.218E+00 0.110E+00 0.157E+01   0.120E-02 0.179E-04 -.363E-03
   0.281E+01 -.117E+02 0.203E+04   -.281E+01 0.118E+02 -.203E+04   0.317E-02 -.496E-01 -.157E+01   -.159E-02 -.363E-03 -.664E-03
   -.989E+01 0.186E+02 -.193E+04   0.102E+02 -.187E+02 0.193E+04   -.316E+00 0.789E-02 0.154E+01   -.117E-03 0.341E-02 0.619E-02
   0.199E+00 -.726E+01 -.453E+02   -.162E+00 0.713E+01 0.445E+02   -.426E-01 0.129E+00 0.847E+00   0.370E-03 0.119E-02 -.189E-02
   -.135E+02 -.427E+01 0.201E+04   0.142E+02 0.476E+01 -.201E+04   -.688E+00 -.491E+00 -.167E+01   0.571E-03 -.115E-02 -.329E-02
   0.530E+01 -.104E+02 0.200E+04   -.545E+01 0.103E+02 -.200E+04   0.141E+00 0.141E+00 -.159E+01   0.211E-02 0.176E-02 -.288E-02
   0.770E+01 -.189E+02 0.201E+04   -.761E+01 0.192E+02 -.201E+04   -.848E-01 -.246E+00 -.173E+01   0.526E-03 0.493E-03 -.863E-03
   -.270E+01 0.307E+01 0.199E+04   0.271E+01 -.332E+01 -.199E+04   -.117E-01 0.253E+00 -.153E+01   0.185E-02 -.137E-02 -.954E-03
   -.208E+02 0.117E+02 0.198E+04   0.212E+02 -.118E+02 -.198E+04   -.455E+00 0.444E-01 -.151E+01   0.346E-02 0.800E-03 -.276E-02
   0.109E+02 -.120E+02 -.199E+04   -.116E+02 0.119E+02 0.199E+04   0.660E+00 0.395E-01 0.139E+01   -.144E-03 -.830E-03 0.290E-02
   -.102E+02 0.733E+01 0.201E+04   0.102E+02 -.750E+01 -.201E+04   -.260E-01 0.179E+00 -.146E+01   0.130E-02 0.411E-03 -.239E-02
   -.165E+01 0.734E+01 -.177E+02   0.169E+01 -.723E+01 0.173E+02   -.344E-01 -.101E+00 0.424E+00   -.766E-03 0.263E-03 -.343E-03
   0.406E+01 -.550E+01 0.200E+04   -.453E+01 0.594E+01 -.199E+04   0.466E+00 -.435E+00 -.152E+01   -.287E-04 -.110E-02 -.352E-02
   0.239E+02 -.621E+01 -.191E+04   -.244E+02 0.626E+01 0.191E+04   0.563E+00 -.495E-01 0.166E+01   0.164E-02 0.186E-02 0.495E-02
   -.539E+01 -.304E+00 0.809E+02   0.469E+01 -.250E-01 -.804E+02   0.700E+00 0.323E+00 -.468E+00   0.134E-02 0.289E-02 0.297E-02
   0.348E+01 -.156E+02 -.196E+04   -.343E+01 0.157E+02 0.196E+04   -.488E-01 -.115E+00 0.162E+01   -.257E-02 -.293E-02 0.770E-02
   -.512E+00 0.153E+00 0.105E+03   0.681E+00 0.431E+00 -.104E+03   -.164E+00 -.572E+00 -.899E+00   -.139E-02 -.423E-03 0.261E-02
   0.173E+01 -.990E+01 -.198E+04   -.123E+01 0.994E+01 0.198E+04   -.503E+00 -.415E-01 0.133E+01   -.218E-02 0.370E-03 0.400E-02
   -.458E+01 0.219E+02 0.201E+04   0.456E+01 -.227E+02 -.201E+04   0.231E-01 0.743E+00 -.136E+01   -.232E-03 -.230E-03 -.510E-02
   0.224E+02 0.712E+01 0.199E+04   -.229E+02 -.722E+01 -.198E+04   0.463E+00 0.984E-01 -.160E+01   -.661E-03 -.289E-03 -.473E-02
   -.262E+02 0.318E+01 -.193E+04   0.268E+02 -.315E+01 0.193E+04   -.566E+00 -.290E-01 0.155E+01   -.467E-02 0.543E-03 0.625E-02
   -.131E+00 0.775E-01 0.121E+01   0.359E-12 -.385E-12 -.909E-12   0.166E+00 -.803E-01 -.120E+01   -.276E-03 -.339E-03 -.313E-02

 POSITION                                       TOTAL-FORCE (eV/Angst)
      6.86555      7.13685     14.83198        -0.004536     -0.000213      0.000726
      6.87934      8.73411     12.23232         0.000449     -0.008712      0.002466
      9.62522      8.73313     12.24987        -0.001234     -0.002957      0.001445
      5.47781      4.76104     14.84241         0.007285      0.005619      0.005990
      5.49381      6.36603     12.21309         0.006677      0.006894      0.000128
      9.64055      7.13195     14.82884         0.001512      0.004453      0.008005
      9.60077      0.81506      9.70768         0.000956     -0.006705     -0.003548
      4.12087      3.96427     12.23334         0.004075     -0.012754     -0.003070
      6.90956      2.37721     14.82931        -0.002072     -0.000530     -0.000039
      2.74964      0.03771     14.84182         0.001817     -0.004382      0.003665
      5.51018      1.57903     12.27268        -0.004688      0.010181      0.004522
     12.42110      8.72747     12.18377         0.002203     -0.003747     -0.000879
      5.52858     -0.00309     14.85385         0.003357     -0.000624     -0.002458
      5.51188      7.94946      9.64684        -0.007018      0.001133     -0.012019
     12.35999      5.54188      9.62791        -0.000640      0.003177      0.000663
     11.00985      6.35552     12.21610        -0.000905      0.006512     -0.002347
      4.12979      5.53311      9.62385         0.002492      0.000870      0.002044
     11.02169      4.74556     14.82724        -0.002575      0.005809      0.003443
     12.39173      3.96613     12.21743        -0.008258     -0.012898      0.001571
      6.89071      3.97567     12.28611        -0.004633     -0.008258      0.001830
     -0.03359      0.00614     14.74208         0.001931     -0.002876      0.008744
     10.99735      1.57649     12.23146        -0.005284      0.008779      0.003568
      9.61931      3.97552     12.27128         0.004711     -0.009969     -0.001816
     10.97941      7.96038      9.62246         0.005335     -0.002435     -0.001950
      8.25856      4.75795     14.71355        -0.002782      0.004993     -0.003904
      8.26100      1.57995     12.23120         0.005969      0.008248     -0.003764
     10.99196      3.17872      9.82937        -0.007343      0.001591     -0.001490
      9.63072      2.37624     14.63945         0.001308      0.001568     -0.003085
     13.74210      7.94225      9.75976        -0.001059     -0.000319      0.006811
      8.26009     -0.00832     14.56782         0.003403     -0.003866     -0.004502
      8.25345      6.36218     12.30621        -0.005613      0.007618     -0.002691
      1.39110      0.81140      9.84934        -0.002398      0.001694     -0.000995
      8.23306      3.18746      9.87714        -0.002151      0.004662      0.000744
      6.85632      0.81145      9.84098         0.005455     -0.005785     -0.001720
      8.24793      7.93417      9.86370         0.004349     -0.001842      0.001874
      6.88645      5.55864      9.88594        -0.000523      0.002253      0.001443
      4.11703      2.39467     14.67297         0.005421     -0.009864     -0.008917
      5.50487      3.16256      9.85908        -0.004005      0.000449     -0.001851
      2.75307      1.57694     12.27568         0.006468      0.009253     -0.001694
      4.10682      0.81117      9.87419        -0.004989     -0.003091      0.002489
      4.10359      7.14195     14.53100         0.005549      0.001931      0.003904
     15.13177      8.73147     12.15224        -0.004799     -0.002493      0.003984
      2.75093      4.77897     14.59255        -0.002481      0.004218     -0.003620
     13.76407      6.34661     12.12908         0.003161      0.010708     -0.003493
      1.38772      2.39386     14.64245        -0.003290     -0.000659     -0.003813
      2.74555      3.15055      9.83789         0.003174     -0.006078     -0.002145
      9.60205      5.55806      9.87557         0.001109     -0.000381      0.004308
     12.40389      7.14178     14.56197        -0.004888     -0.001178      0.001443
    total drift:                                0.034560     -0.003127      0.005233

  FREE ENERGIE OF THE ION-ELECTRON SYSTEM (eV)
  free  energy   TOTEN  =      -191.49811629 eV

  energy  without entropy=     -191.29558379  energy(sigma->0) =     -191.39685004

 d Force = 0.3684018E-03[-0.644E-04, 0.801E-03]  d Energy = 0.3958804E-03-0.275E-04
 d Force =-0.4405665E+02[-0.440E+02,-0.441E+02]  d Ewald  =-0.4405666E+02 0.526E-05

 stress matrix after NEB project (eV)
      0.00000      0.00000      0.00000
      0.00000      0.00000      0.00000
      0.00000      0.00000      0.00000
  FORCES: max atom, RMS     0.015395    0.008239
  FORCE total and by dimension    0.057084    0.012898
  Stress total and by dimension    0.000000    0.000000
 Conjugate gradient step on ions:
 trial-energy change:   -0.000396  1 .order   -0.000368   -0.000801    0.000064
  (g-gl).g = 0.272E-03      g.g   = 0.299E-03  gl.gl    = 0.411E-03
 g(Force)  = 0.299E-03   g(Stress)= 0.000E+00 ortho     =-0.437E-05
 gamma     =   0.66341
 trial     =   2.70856
 opt step  =   2.53767  (harmonic =   2.50717) maximal distance =0.00286344
 next E    =  -191.498118   (d E  =  -0.00040)

 reached required accuracy - stopping structural energy minimisation