 vasp.5.4.1 24Jun15 (build Mar 14 2019 10:18:33) complex

 executed on INTEL-19.0.2+OPENMPI date 2022.07.15  14:49:36

 INCAR:
 POTCAR:    PAW_PBE Au 04Oct2007
 POTCAR:    PAW_PBE Pd 04Jan2005
 POTCAR:    PAW_PBE Au 04Oct2007

 POTCAR:    PAW_PBE Pd 04Jan2005

 Optimization of the real space projectors (new method)

 maximal supplied QI-value         = 15.12
 optimisation between [QCUT,QGAM] = [ 10.13, 20.41] = [ 28.73,116.64] Ry
 Optimized for a Real-space Cutoff    1.51 Angstroem

   l    n(q)    QCUT    max X(q) W(low)/X(q) W(high)/X(q)  e(spline)
   2      8    10.129    60.898    0.46E-03    0.46E-03    0.14E-06
   2      8    10.129    58.894    0.47E-03    0.47E-03    0.14E-06
   0      9    10.129   109.617    0.16E-03    0.11E-03    0.54E-07
   0      9    10.129    75.026    0.15E-03    0.11E-03    0.52E-07
   1      9    10.129    16.344    0.96E-04    0.15E-03    0.14E-06
   1      9    10.129    10.160    0.81E-04    0.12E-03    0.11E-06
 Optimization of the real space projectors (new method)

 maximal supplied QI-value         = 14.36
 optimisation between [QCUT,QGAM] = [ 10.20, 20.39] = [ 29.12,116.47] Ry
 Optimized for a Real-space Cutoff    1.51 Angstroem

   l    n(q)    QCUT    max X(q) W(low)/X(q) W(high)/X(q)  e(spline)
   2      8    10.197    59.108    0.26E-03    0.14E-03    0.96E-07
   2      8    10.197    58.101    0.27E-03    0.14E-03    0.98E-07
   0      9    10.197   102.235    0.54E-04    0.60E-05    0.72E-07
   0      9    10.197    58.388    0.52E-04    0.60E-05    0.68E-07
   1      9    10.197    22.191    0.18E-03    0.25E-03    0.79E-07
   1      9    10.197    15.590    0.15E-03    0.21E-03    0.69E-07
  PAW_PBE Au 04Oct2007                  :
  PAW_PBE Pd 04Jan2005                  :

 POSCAR: Au Pd
  positions in cartesian coordinates
 exchange correlation table for  LEXCH =        8
   RHO(1)=    0.500       N(1)  =     2000
   RHO(2)=  100.500       N(2)  =     4000

 VTST: version 3.2, (02/03/18)

 CHAIN: initializing optimizer

 OPT: Using VASP Conjugate-Gradient optimizer
 CHAIN: Read ICHAIN            0

 POSCAR: Au Pd
  positions in cartesian coordinates

 ion  position               nearest neighbor table
   1  0.250  0.750  0.592-  45 2.75  28 2.75  14 2.75  22 2.75   5 2.75   7 2.75  39 2.75  11 2.75
                             8 2.75
   2  0.500  0.000  0.592-   3 2.75  46 2.75  11 2.75  10 2.75  47 2.75  48 2.75  25 2.75  14 2.75
                             9 2.75
   3  0.417  0.167  0.500-  40 2.75   2 2.75  10 2.75  24 2.75   9 2.75  42 2.75  46 2.75  15 2.75
                            41 2.75  12 2.75   4 2.75  47 2.75
   4  0.583  0.083  0.408-  15 2.75  12 2.75   6 2.75  23 2.75  31 2.75  29 2.75  40 2.75  46 2.75
                             3 2.75
   5  0.500  0.500  0.592-  28 2.75  17 2.75   1 2.75  18 2.75  11 2.75  47 2.75   7 2.75  27 2.75
                            24 2.75
   6  0.583  0.833  0.408-  46 2.75  13 2.75  19 2.75  40 2.75   4 2.75  44 2.75  23 2.75  26 2.75
                             9 2.75
   7  0.250  0.500  0.592-   8 2.75  24 2.75  10 2.75   1 2.75  39 2.75  47 2.75   5 2.75  36 2.75
                            42 2.75
   8  0.167  0.667  0.500-  20 2.75   7 2.75  39 2.75  38 2.75  24 2.75  42 2.75  45 2.75  28 2.75
                            35 2.75  37 2.75  43 2.75   1 2.75
   9  0.417  0.917  0.500-  44 2.75  11 2.75  14 2.75  26 2.75  28 2.75  41 2.75   3 2.75  45 2.75
                            46 2.75  40 2.75   6 2.75   2 2.75
  10  0.250  0.250  0.592-  42 2.75   3 2.75   7 2.75  14 2.75  36 2.75   2 2.75  34 2.75  47 2.75
                            41 2.75
  11  0.500  0.750  0.592-   9 2.75  26 2.75   2 2.75  14 2.75   5 2.75  27 2.75   1 2.75  48 2.75
                            28 2.75
  12  0.333  0.333  0.408-  24 2.75  20 2.75   4 2.75  40 2.75  43 2.75  21 2.75  31 2.75   3 2.75
                            42 2.75
  13  0.583  0.583  0.408-  26 2.75  16 2.75   6 2.75  31 2.75  44 2.75  43 2.75  19 2.75  17 2.75
                            28 2.75
  14  0.250  0.000  0.592-  41 2.75   9 2.75  10 2.75  11 2.75  34 2.75   1 2.75   2 2.75  22 2.75
                            45 2.75
  15  0.667  0.167  0.500-   4 2.75  25 2.75  47 2.75  17 2.75  38 2.75  46 2.75  24 2.75  32 2.75
                             3 2.75  31 2.75  29 2.75  18 2.75
  16  0.833  0.333  0.408-  33 2.75  19 2.75  29 2.75  30 2.75  13 2.75  31 2.75  21 2.75  32 2.75
                            17 2.75
  17  0.667  0.417  0.500-  31 2.75  18 2.75   5 2.75  26 2.75  28 2.75  15 2.75  32 2.75  24 2.75
                            33 2.75  13 2.75  16 2.75  27 2.75
  18  0.750  0.250  0.592-  17 2.75  32 2.75  22 2.75  25 2.75  27 2.75   5 2.75  34 2.75  47 2.75
                            15 2.75
  19  0.833  0.583  0.408-  35 2.75  16 2.75  21 2.75  23 2.75   6 2.75  20 2.75  13 2.75  33 2.75
                            26 2.75
  20  0.083  0.583  0.408-   8 2.75  12 2.75  21 2.75  23 2.75  37 2.75  19 2.75  43 2.75  42 2.75
                            35 2.75
  21  0.083  0.333  0.408-  42 2.75  20 2.75  30 2.75  40 2.75  19 2.75  16 2.75  12 2.75  41 2.75
                            33 2.75
  22  0.000  0.000  0.592-  32 2.75  45 2.75   1 2.75  34 2.75  39 2.75  18 2.75  14 2.75  25 2.75
                            38 2.75
  23  0.833  0.833  0.408-  38 2.75  19 2.75  20 2.75  29 2.75   4 2.75  37 2.75   6 2.75  35 2.75
                            46 2.75
  24  0.417  0.417  0.500-  12 2.75  47 2.75   7 2.75   3 2.75  15 2.75  28 2.75   8 2.75  42 2.75
                            17 2.75  43 2.75  31 2.75   5 2.75
  25  0.750  0.000  0.592-  15 2.75  38 2.75  18 2.75  39 2.75  47 2.75  48 2.75   2 2.75  22 2.75
                            46 2.75
  26  0.667  0.667  0.500-  13 2.75  27 2.75  11 2.75  17 2.75   9 2.75  33 2.75  46 2.75  35 2.75
                            28 2.75   6 2.75  19 2.75  48 2.75
  27  0.750  0.500  0.592-  26 2.75  33 2.75  11 2.75  18 2.75  34 2.75  48 2.75  36 2.75   5 2.75
                            17 2.75
  28  0.417  0.667  0.500-  43 2.75   5 2.75   1 2.75  17 2.75  24 2.75   9 2.75  45 2.75   8 2.75
                            26 2.75  44 2.75  11 2.75  13 2.75
  29  0.833  0.083  0.408-  32 2.75  23 2.75  31 2.75  16 2.75  37 2.75  30 2.75   4 2.75  38 2.75
                            15 2.75
  30  0.083  0.083  0.408-  41 2.75  21 2.75  37 2.75  16 2.75  44 2.75  29 2.75  40 2.75  45 2.75
                            32 2.75
  31  0.583  0.333  0.408-  17 2.75  13 2.75   4 2.75  29 2.75  43 2.75  16 2.75  12 2.75  15 2.75
                            24 2.75
  32  0.917  0.167  0.500-  29 2.75  22 2.75  18 2.75  17 2.75  33 2.75  38 2.75  45 2.75  41 2.75
                            15 2.75  16 2.75  34 2.75  30 2.75
  33  0.917  0.417  0.500-  16 2.75  34 2.75  27 2.75  32 2.75  26 2.75  35 2.75  41 2.75  17 2.75
                            42 2.75  19 2.75  21 2.75  36 2.75
  34  0.000  0.250  0.592-  33 2.75  41 2.75  27 2.75  14 2.75  36 2.75  22 2.75  18 2.75  10 2.75
                            32 2.75
  35  0.917  0.667  0.500-  19 2.75  36 2.75  48 2.75  38 2.75  42 2.75  46 2.75  33 2.75   8 2.75
                            26 2.75  23 2.75  39 2.75  20 2.75
  36  0.000  0.500  0.592-  35 2.75  42 2.75  10 2.75  39 2.75  34 2.75  48 2.75  27 2.75   7 2.75
                            33 2.75
  37  0.083  0.833  0.408-  45 2.75  29 2.75  30 2.75  43 2.75  20 2.75  44 2.75  23 2.75   8 2.75
                            38 2.75
  38  0.917  0.917  0.500-  23 2.75  39 2.75  25 2.75  15 2.75  32 2.75  35 2.75   8 2.75  45 2.75
                            46 2.75  29 2.75  37 2.75  22 2.75
  39  0.000  0.750  0.592-  38 2.75   8 2.75  22 2.75  25 2.75  36 2.75   7 2.75   1 2.75  48 2.75
                            35 2.75
  40  0.333  0.083  0.408-   3 2.75   6 2.75  12 2.75  21 2.75  44 2.75  30 2.75   4 2.75   9 2.75
                            41 2.75
  41  0.167  0.167  0.500-  30 2.75  14 2.75  34 2.75  33 2.75   9 2.75  42 2.75  45 2.75   3 2.75
                            32 2.75  21 2.75  10 2.75  40 2.75
  42  0.167  0.417  0.500-  21 2.75  10 2.75  36 2.75   8 2.75  35 2.75   3 2.75  41 2.75  33 2.75
                            24 2.75  20 2.75  12 2.75   7 2.75
  43  0.333  0.583  0.408-  28 2.75  12 2.75  31 2.75  37 2.75  44 2.75  13 2.75  20 2.75  24 2.75
                             8 2.75
  44  0.333  0.833  0.408-   9 2.75  13 2.75  30 2.75  40 2.75  43 2.75   6 2.75  37 2.75  28 2.75
                            45 2.75
  45  0.167  0.917  0.500-  37 2.75   1 2.75  22 2.75  28 2.75  32 2.75   8 2.75  41 2.75  38 2.75
                             9 2.75  30 2.75  14 2.75  44 2.75
  46  0.667  0.917  0.500-   6 2.75  48 2.75   2 2.75  15 2.75  26 2.75  35 2.75   3 2.75  38 2.75
                             9 2.75   4 2.75  23 2.75  25 2.75
  47  0.500  0.250  0.592-  24 2.75  15 2.75   7 2.75   2 2.75   5 2.75  25 2.75  10 2.75  18 2.75
                             3 2.75
  48  0.750  0.750  0.592-  46 2.75  35 2.75  27 2.75   2 2.75  36 2.75  25 2.75  39 2.75  11 2.75
                            26 2.75

  LATTYP: Found a hexagonal cell.
 ALAT       =    11.0025815153
 C/A-ratio  =     2.2260035120

  Lattice vectors:

 A1 = (   5.5012907576,  -9.5285150994,   0.0000000000)
 A2 = ( -11.0025815153,   0.0000000000,   0.0000000000)
 A3 = (   0.0000000000,   0.0000000000, -24.4917850943)

Analysis of symmetry for initial positions (statically):
 Subroutine PRICEL returns:
 Original cell was already a primitive cell.

 Routine SETGRP: Setting up the symmetry group for a
 hexagonal supercell.

 Subroutine GETGRP returns: Found  1 space group operations
 (whereof  1 operations were pure point group operations)
 out of a pool of 24 trial point group operations.

The static configuration has the point symmetry C_1 .

Analysis of symmetry for dynamics (positions and initial velocities):
 Subroutine PRICEL returns:
 Original cell was already a primitive cell.

 Routine SETGRP: Setting up the symmetry group for a
 hexagonal supercell.

 Subroutine GETGRP returns: Found  1 space group operations
 (whereof  1 operations were pure point group operations)
 out of a pool of 24 trial point group operations.

The dynamic configuration has the point symmetry C_1 .

 KPOINTS: Automatic mesh

Automatic generation of k-mesh.
Space group operators:
 irot       det(A)        alpha          n_x          n_y          n_z        tau_x        tau_y        tau_z
    1     1.000000     0.000000     1.000000     0.000000     0.000000     0.000000     0.000000     0.000000

 Subroutine IBZKPT returns following result:

 Found      6 irreducible k-points:

 Following reciprocal coordinates:
            Coordinates               Weight
  0.250000  0.250000  0.000000     16.000000
  0.000000  0.250000  0.000000     16.000000
 -0.250000  0.000000  0.000000     16.000000
 -0.250000  0.250000  0.000000     16.000000
  0.500000 -0.250000  0.000000     16.000000
 -0.250000  0.500000  0.000000     16.000000

 Following cartesian coordinates:
            Coordinates               Weight
  0.022722  0.013119  0.000000     16.000000
  0.000000  0.026237  0.000000     16.000000
[...]
  average eigenvalue GAMMA=   0.3677
  0.3677

[...]

----------------------------------------- Iteration   23(   3)  ---------------------------------------

 eigenvalue-minimisations  :  3555
 total energy-change (2. order) : 0.7485141E-06  (-0.8338214E-06)
 number of electron     503.9999622 magnetization
 augmentation part      197.2533529 magnetization

 DIPCOR: dipole corrections for dipol
 direction  3 min pos     1,
 dipolmoment           0.000000      0.000000      0.011960 electrons x Angstroem
 Tr[quadrupol]    -10307.549195

 energy correction for charged system         0.000000 eV
 dipol+quadrupol energy correction           -0.000005 eV
 added-field ion interaction         -0.000190 eV  (added to PSCEN)

  free energy =  -0.192747566698E+03  energy without entropy=  -0.192493246400E+03

 average (electrostatic) potential at core
  the test charge radii are     1.2098  1.1199
  (the norm of the test charge is              1.0000)
       1 -74.0080       2 -73.9435       3 -74.1755       4 -73.9501       5 -73.9592
       6 -73.9740       7 -73.9289       8 -74.1638       9 -74.1483      10 -73.9398
      11 -73.9670      12 -73.9628      13 -73.9532      14 -73.9604      15 -74.1648
      16 -73.9157      17 -74.1584      18 -73.9032      19 -73.9680      20 -73.9925
      21 -73.9555      22 -73.9319      23 -73.9587      24 -74.2034      25 -80.8439
      26 -80.9239      27 -80.8497      28 -80.8925      29 -80.8225      30 -80.8392
      31 -80.8712      32 -80.9828      33 -80.9461      34 -80.8143      35 -80.9454
      36 -80.8736      37 -80.8312      38 -81.0336      39 -80.8087      40 -80.8320
      41 -80.9810      42 -80.8922      43 -80.8603      44 -80.8388      45 -80.9475
      46 -80.8864      47 -80.8422      48 -80.8801

 E-fermi :  -1.0782     XC(G=0):  -4.5444     alpha+bet : -4.5211

[...]

 k-point     6 :      -0.2500    0.5000    0.0000
  band No.  band energies     occupation
      1      -8.4651      2.00000
      2      -8.1332      2.00000
      3      -7.8685      2.00000
      4      -7.4262      2.00000
      5      -7.2274      2.00000
      6      -7.1642      2.00000
      7      -7.0435      2.00000
      8      -6.8957      2.00000
      9      -6.8548      2.00000
     10      -6.7767      2.00000
     11      -6.7430      2.00000
     12      -6.7154      2.00000
     13      -6.6727      2.00000
     14      -6.6224      2.00000
     15      -6.6017      2.00000
     16      -6.5702      2.00000
     17      -6.5460      2.00000
     18      -6.4971      2.00000
     19      -6.4768      2.00000
     20      -6.4348      2.00000
     21      -6.3944      2.00000
     22      -6.3432      2.00000
     23      -6.3246      2.00000
     24      -6.2833      2.00000
     25      -6.2639      2.00000
     26      -6.2452      2.00000
     27      -6.2268      2.00000
     28      -6.1964      2.00000
     29      -6.1224      2.00000
     30      -6.1141      2.00000
     31      -6.0877      2.00000
     32      -6.0523      2.00000
     33      -6.0242      2.00000
     34      -6.0056      2.00000
     35      -5.9904      2.00000
     36      -5.9589      2.00000
     37      -5.9209      2.00000
     38      -5.9099      2.00000
     39      -5.8925      2.00000
     40      -5.8567      2.00000
     41      -5.8444      2.00000
     42      -5.8182      2.00000
     43      -5.7814      2.00000
     44      -5.7694      2.00000
     45      -5.7406      2.00000
     46      -5.6960      2.00000
     47      -5.6712      2.00000
     48      -5.6317      2.00000
     49      -5.5975      2.00000
     50      -5.5549      2.00000
     51      -5.5176      2.00000
     52      -5.4803      2.00000
     53      -5.4599      2.00000
     54      -5.4332      2.00000
     55      -5.4034      2.00000
     56      -5.3719      2.00000
     57      -5.3674      2.00000
     58      -5.3306      2.00000
     59      -5.2870      2.00000
     60      -5.2375      2.00000
[...]
    292       4.1967      0.00000
    293       4.4546      0.00000
    294       4.5170      0.00000
    295       4.6131      0.00000
    296       4.6336      0.00000
    297       4.6555      0.00000
    298       4.7571      0.00000
    299       4.8471      0.00000
    300       4.9214      0.00000
    301       4.9913      0.00000
    302       5.0436      0.00000
    303       5.0793      0.00000
    304       5.0901      0.00000
    305       5.1446      0.00000
    306       5.2263      0.00000

 soft charge-density along one line, spin component           1
         0         1         2         3         4         5         6         7         8         9
 total charge-density along one line

------------------------ aborting loop because EDIFF is reached ----------------------------------------

 VOLUME and BASIS-vectors are now :
  energy-cutoff  :      400.00
  volume of cell :     2567.68
      direct lattice vectors                 reciprocal lattice vectors
    11.002581515  0.000000000  0.000000000     0.090887761 -0.052474073  0.000000000
     5.501290758  9.528515099  0.000000000     0.000000000  0.104948147  0.000000000
     0.000000000  0.000000000 24.491785094     0.000000000  0.000000000  0.040830017

  length of vectors
    11.002581515 11.002581515 24.491785094     0.104948147  0.104948147  0.040830017

 FORCES acting on ions
    electron-ion (+dipol)            ewald-force                    non-local-force                 convergence-correction
   0.129E+02 0.315E-01 -.227E+04   -.132E+02 0.153E+00 0.227E+04   0.284E+00 -.194E+00 0.224E+00   0.107E-01 0.298E-03 -.209E-01
   -.235E+02 0.921E+01 -.226E+04   0.248E+02 -.950E+01 0.226E+04   -.130E+01 0.277E+00 -.120E+00   -.206E-01 0.112E-01 0.458E-02
   -.959E-01 -.130E+01 0.214E+01   -.485E+00 0.127E+01 -.206E+01   0.601E+00 0.716E-02 -.539E-01   -.175E-01 0.460E-02 -.223E-01
   -.296E+01 -.987E+01 0.229E+04   0.311E+01 0.101E+02 -.229E+04   -.160E+00 -.192E+00 0.189E+00   -.762E-02 0.776E-02 -.178E-01
   -.126E+02 0.784E+01 -.230E+04   0.129E+02 -.808E+01 0.230E+04   -.269E+00 0.228E+00 -.115E+00   0.102E-02 0.292E-02 -.579E-02
   0.262E+02 -.949E+01 0.226E+04   -.266E+02 0.974E+01 -.226E+04   0.433E+00 -.242E+00 -.452E+00   -.144E-01 0.401E-02 -.114E-01
   0.291E+02 -.150E+01 -.228E+04   -.296E+02 0.131E+01 0.228E+04   0.560E+00 0.197E+00 -.765E-01   0.490E-02 -.364E-02 -.318E-03
   -.203E+01 0.864E+01 -.256E+02   0.180E+01 -.796E+01 0.252E+02   0.209E+00 -.677E+00 0.487E+00   0.201E-01 0.898E-03 -.240E-01
   -.620E+01 0.177E+01 -.376E+02   0.567E+01 -.210E+01 0.364E+02   0.567E+00 0.314E+00 0.120E+01   -.235E-01 0.561E-02 -.239E-01
   0.951E+01 -.149E+02 -.225E+04   -.101E+02 0.155E+02 0.225E+04   0.604E+00 -.502E+00 0.153E+00   -.105E-01 -.802E-02 -.479E-02
   -.326E+02 0.787E+01 -.223E+04   0.332E+02 -.856E+01 0.223E+04   -.539E+00 0.679E+00 0.404E+00   -.141E-01 0.169E-02 -.123E-01
   -.906E+01 -.407E+01 0.228E+04   0.927E+01 0.410E+01 -.228E+04   -.202E+00 -.252E-01 0.124E+00   -.533E-03 -.450E-02 -.138E-01
   0.279E+02 -.374E+01 0.224E+04   -.289E+02 0.410E+01 -.224E+04   0.967E+00 -.368E+00 -.213E+00   -.123E-01 0.129E-02 -.121E-01
   -.271E+01 -.119E+02 -.227E+04   0.221E+01 0.125E+02 0.227E+04   0.505E+00 -.599E+00 0.246E+00   0.195E-03 0.922E-02 -.223E-01
   0.271E+01 -.249E+01 -.442E+01   -.227E+01 0.151E+01 0.445E+01   -.450E+00 0.968E+00 -.442E-02   0.573E-02 0.218E-01 -.250E-01
   0.102E+02 0.215E+02 0.226E+04   -.104E+02 -.225E+02 -.226E+04   0.180E+00 0.104E+01 -.207E+00   -.242E-03 -.975E-02 -.725E-02
   0.290E+01 -.166E+01 -.151E+02   -.207E+01 0.227E+01 0.151E+02   -.822E+00 -.611E+00 -.188E-02   -.527E-02 -.495E-02 -.187E-01
   -.802E+01 0.200E+01 -.229E+04   0.825E+01 -.200E+01 0.229E+04   -.240E+00 0.245E-02 -.168E+00   0.993E-02 0.657E-02 0.426E-02
   0.491E+01 0.356E+01 0.227E+04   -.482E+01 -.361E+01 -.226E+04   -.778E-01 0.686E-01 -.645E+00   -.591E-02 -.507E-02 0.484E-03
   -.236E+02 -.691E+01 0.226E+04   0.240E+02 0.729E+01 -.226E+04   -.450E+00 -.380E+00 -.273E+00   0.720E-02 -.756E-02 -.861E-02
   0.267E+00 0.248E+02 0.223E+04   -.307E+00 -.257E+02 -.223E+04   0.389E-01 0.852E+00 -.633E+00   0.413E-02 -.142E-01 0.377E-02
   0.185E+02 -.297E+01 -.224E+04   -.189E+02 0.287E+01 0.224E+04   0.383E+00 0.900E-01 0.455E+00   0.240E-01 0.115E-01 -.133E-01
   -.202E+02 -.111E+02 0.225E+04   0.210E+02 0.114E+02 -.225E+04   -.789E+00 -.337E+00 -.513E+00   -.306E-02 0.696E-03 -.902E-02
   0.613E+01 -.318E+01 -.342E+02   -.619E+01 0.356E+01 0.337E+02   0.682E-01 -.392E+00 0.543E+00   0.274E-02 0.477E-02 -.231E-01
   0.760E+01 0.196E+02 -.196E+04   -.777E+01 -.200E+02 0.196E+04   0.166E+00 0.426E+00 0.179E+01   0.124E-02 0.155E-01 -.118E-02
   0.510E+01 -.290E+01 0.504E+02   -.447E+01 0.277E+01 -.494E+02   -.609E+00 0.147E+00 -.923E+00   -.176E-01 -.169E-03 -.182E-01
   -.308E+02 -.783E+01 -.194E+04   0.314E+02 0.787E+01 0.194E+04   -.617E+00 -.261E-01 0.191E+01   -.634E-02 -.117E-01 -.656E-02
   -.259E+01 0.338E+01 -.599E+02   0.260E+01 -.295E+01 0.589E+02   -.307E-02 -.437E+00 0.970E+00   -.465E-02 0.949E-02 -.251E-01
   -.196E+02 0.174E+01 0.197E+04   0.200E+02 -.179E+01 -.197E+04   -.432E+00 0.510E-01 -.186E+01   0.113E-01 0.677E-02 -.754E-02
   -.270E+01 0.204E+02 0.193E+04   0.264E+01 -.209E+02 -.193E+04   0.551E-01 0.509E+00 -.190E+01   0.882E-02 -.482E-02 0.296E-02
   -.564E+00 -.469E+01 0.197E+04   0.660E+00 0.471E+01 -.197E+04   -.928E-01 -.218E-01 -.113E+01   0.421E-03 0.349E-02 -.258E-02
   0.350E+01 -.433E+01 -.259E+02   -.274E+01 0.393E+01 0.255E+02   -.774E+00 0.393E+00 0.453E+00   0.204E-01 0.152E-02 -.178E-01
   -.103E+00 -.540E+00 0.655E+02   0.436E+00 0.634E+00 -.642E+02   -.333E+00 -.758E-01 -.133E+01   0.291E-02 -.226E-01 -.138E-01
   0.691E+00 -.246E+02 -.195E+04   -.593E+00 0.249E+02 0.194E+04   -.109E+00 -.359E+00 0.201E+01   0.679E-02 -.905E-02 -.219E-01
   -.115E+01 0.169E+01 0.771E+02   0.681E+00 -.171E+01 -.758E+02   0.475E+00 0.383E-01 -.133E+01   0.506E-04 -.141E-01 -.173E-01
   0.151E+02 -.149E+02 -.191E+04   -.155E+02 0.151E+02 0.191E+04   0.465E+00 -.216E+00 0.194E+01   0.158E-02 -.212E-01 -.223E-02
   -.245E+02 -.112E+02 0.196E+04   0.249E+02 0.117E+02 -.196E+04   -.379E+00 -.522E+00 -.181E+01   0.196E-01 0.358E-02 -.817E-02
   -.753E-01 0.138E+01 0.480E+01   0.192E-01 -.139E+01 -.479E+01   0.410E-01 -.372E-02 0.102E-01   0.255E-01 0.841E-02 -.231E-01
   0.341E+02 0.472E+01 -.196E+04   -.346E+02 -.466E+01 0.196E+04   0.557E+00 -.590E-01 0.188E+01   0.187E-01 -.928E-02 -.569E-02
   0.230E+02 0.109E+02 0.196E+04   -.235E+02 -.108E+02 -.196E+04   0.505E+00 -.349E-01 -.163E+01   -.967E-02 0.349E-03 -.442E-02
   -.649E+01 -.990E+00 -.273E+02   0.575E+01 0.121E+01 0.269E+02   0.756E+00 -.219E+00 0.413E+00   -.859E-02 -.578E-02 -.157E-01
   -.800E+01 0.277E+01 0.278E+02   0.704E+01 -.266E+01 -.272E+02   0.968E+00 -.932E-01 -.569E+00   -.194E-02 -.153E-01 -.850E-02
   -.965E+01 -.164E+02 0.195E+04   0.993E+01 0.166E+02 -.195E+04   -.273E+00 -.246E+00 -.159E+01   0.637E-02 0.531E-02 -.928E-02
   0.207E+02 -.586E+01 0.194E+04   -.213E+02 0.605E+01 -.193E+04   0.559E+00 -.189E+00 -.169E+01   -.636E-02 0.641E-02 -.834E-02
   -.357E+01 0.413E+01 -.755E+02   0.345E+01 -.380E+01 0.741E+02   0.976E-01 -.354E+00 0.135E+01   0.137E-01 0.906E-02 -.251E-01
   0.768E+01 -.309E+01 0.570E+02   -.715E+01 0.237E+01 -.560E+02   -.519E+00 0.713E+00 -.937E+00   -.198E-01 0.729E-02 -.205E-01
   -.179E+01 0.129E+02 -.198E+04   0.190E+01 -.130E+02 0.198E+04   -.961E-01 0.178E+00 0.124E+01   -.382E-02 0.820E-02 -.155E-01
   -.135E+02 0.115E+02 -.191E+04   0.139E+02 -.118E+02 0.191E+04   -.446E+00 0.274E+00 0.191E+01   -.138E-01 -.711E-02 0.413E-02
   -.394E-01 -.571E-01 0.820E+00   0.124E-13 -.178E-12 -.205E-11   0.596E-01 0.781E-01 -.291E+00   -.604E-04 0.151E-02 -.555E+00

 POSITION                                       TOTAL-FORCE (eV/Angst)
      6.86335      7.13950     14.82207        -0.008088     -0.009936      0.012335
      5.55064     -0.02047     14.77524         0.004222      0.001619     -0.011132
      5.47967      1.59177     12.24548         0.002574     -0.013116      0.005702
      6.89262      0.80978      9.65824        -0.012003      0.005184      0.014335
      8.26438      4.74487     14.87170        -0.002882      0.000287     -0.006644
     10.97871      7.95747      9.70761         0.004837      0.005559      0.001708
      5.46808      4.75761     14.81266         0.002165      0.004266     -0.010631
      5.48613      6.37732     12.26728        -0.003937      0.002840      0.005860
      9.61423      8.72820     12.27520         0.008231     -0.010434     -0.003696
      4.11132      2.39620     14.76271        -0.001396     -0.005360     -0.007888
      9.67085      7.11516     14.75445         0.003432     -0.002047      0.013360
      5.51826      3.18215      9.66977         0.004854     -0.000195      0.011534
      9.58477      5.57093      9.74879        -0.011062     -0.000500     -0.000945
      2.74522      0.01758     14.82014         0.008220      0.011862      0.005663
      8.26429      1.56287     12.24878        -0.004407      0.017877     -0.002789
     10.99155      3.13311      9.72391        -0.014700     -0.007780      0.003075
      9.65179      3.98665     12.25586        -0.002113     -0.009460     -0.008728
      9.63462      2.37209     14.81295        -0.008100      0.006280     -0.011490
     12.37089      5.55238      9.68260         0.005098      0.009606     -0.002320
      4.15672      5.57643      9.71107         0.002129     -0.007437     -0.013583
      2.75436      3.13692      9.75151         0.002779     -0.005108     -0.011533
     -0.02699     -0.00789     14.75014        -0.004996      0.004663      0.006488
     13.79033      7.96478      9.72129        -0.003534      0.000336     -0.016570
      6.86663      3.98965     12.27726         0.007993     -0.007786      0.004393
      8.24871     -0.02675     14.59137        -0.006874     -0.000502      0.004176
     11.01485      6.35566     12.18197         0.000682      0.013639      0.002728
     11.03437      4.75562     14.56697        -0.003772      0.001392      0.006803
      8.25650      6.36808     12.31106         0.003084      0.000436      0.004181
      9.64990      0.79278      9.88740         0.005178      0.004259      0.001247
      1.37475      0.76593      9.95728         0.003633     -0.006052     -0.006825
      8.25490      3.18235      9.87294         0.003089     -0.000840      0.010838
     11.01611      1.58254     12.27448         0.003724      0.000731      0.000903
     12.38447      3.97203     12.16651         0.002023     -0.004972      0.006734
      1.37354      2.40911     14.58153        -0.004220     -0.006791      0.003133
     13.73197      6.35101     12.14766         0.004881      0.005301     -0.007217
      2.72895      4.76779     14.50486         0.003138      0.011695     -0.001021
      5.53606      7.96447      9.91486        -0.000777      0.007614     -0.002217
     15.12159      8.73462     12.23643         0.009980     -0.006200      0.001096
      4.08958      7.13389     14.58080         0.005024     -0.003825      0.000227
      4.11341      0.78819      9.88570        -0.000648     -0.000569      0.004252
      2.72899      1.60973     12.27520         0.006492     -0.001221     -0.002707
      4.09845      3.97921     12.21044         0.002357      0.002797     -0.004206
      6.88220      5.57907      9.91410         0.010483      0.006307      0.006364
      8.22940      7.95517      9.95493        -0.009850      0.002838     -0.004558
      6.86430      8.76300     12.33537        -0.002445     -0.009861     -0.001401
     12.38419      8.71609     12.17302        -0.007999     -0.007074     -0.004687
      6.87995      2.36820     14.65412         0.001422      0.000561     -0.005154
     12.40570      7.12450     14.49712        -0.007921     -0.000881      0.010805
    total drift:                                0.020206      0.022431     -0.026004

  FREE ENERGIE OF THE ION-ELECTRON SYSTEM (eV)
  free  energy   TOTEN  =      -192.74756670 eV

  energy  without entropy=     -192.49324640  energy(sigma->0) =     -192.62040655

 d Force = 0.1637937E-06[-0.729E-05, 0.761E-05]  d Energy = 0.1720196E-05-0.156E-05
 d Force = 0.2900912E+01[ 0.290E+01, 0.290E+01]  d Ewald  = 0.2900912E+01 0.250E-08

 stress matrix after NEB project (eV)
      0.00000      0.00000      0.00000
      0.00000      0.00000      0.00000
      0.00000      0.00000      0.00000
  FORCES: max atom, RMS     0.019402    0.011716
  FORCE total and by dimension    0.081169    0.017877
  Stress total and by dimension    0.000000    0.000000

 reached required accuracy - stopping structural energy minimisation