 vasp.5.4.1 24Jun15 (build Mar 14 2019 10:18:33) complex

 executed on INTEL-19.0.2+OPENMPI date 2023.01.30  23:30:18

 INCAR:
 POTCAR:    PAW_PBE Au 04Oct2007
 POTCAR:    PAW_PBE Pd 04Jan2005
 POTCAR:    PAW_PBE Au 04Oct2007

 POTCAR:    PAW_PBE Pd 04Jan2005

 Optimization of the real space projectors (new method)

 maximal supplied QI-value         = 15.12
 optimisation between [QCUT,QGAM] = [ 10.13, 20.41] = [ 28.73,116.64] Ry
 Optimized for a Real-space Cutoff    1.51 Angstroem

   l    n(q)    QCUT    max X(q) W(low)/X(q) W(high)/X(q)  e(spline)
   2      8    10.129    60.898    0.46E-03    0.46E-03    0.14E-06
   2      8    10.129    58.894    0.47E-03    0.47E-03    0.14E-06
   0      9    10.129   109.617    0.16E-03    0.11E-03    0.54E-07
   0      9    10.129    75.026    0.15E-03    0.11E-03    0.52E-07
   1      9    10.129    16.344    0.96E-04    0.15E-03    0.14E-06
   1      9    10.129    10.160    0.81E-04    0.12E-03    0.11E-06
 Optimization of the real space projectors (new method)

 maximal supplied QI-value         = 14.36
 optimisation between [QCUT,QGAM] = [ 10.20, 20.39] = [ 29.12,116.47] Ry
 Optimized for a Real-space Cutoff    1.51 Angstroem

   l    n(q)    QCUT    max X(q) W(low)/X(q) W(high)/X(q)  e(spline)
   2      8    10.197    59.108    0.26E-03    0.14E-03    0.96E-07
   2      8    10.197    58.101    0.27E-03    0.14E-03    0.98E-07
   0      9    10.197   102.235    0.54E-04    0.60E-05    0.72E-07
   0      9    10.197    58.388    0.52E-04    0.60E-05    0.68E-07
   1      9    10.197    22.191    0.18E-03    0.25E-03    0.79E-07
   1      9    10.197    15.590    0.15E-03    0.21E-03    0.69E-07
  PAW_PBE Au 04Oct2007                  :
  PAW_PBE Pd 04Jan2005                  :

 POSCAR: Au Pd
  positions in cartesian coordinates
 exchange correlation table for  LEXCH =        8
   RHO(1)=    0.500       N(1)  =     2000
   RHO(2)=  100.500       N(2)  =     4000

 VTST: version 3.2, (02/03/18)

 CHAIN: initializing optimizer

 OPT: Using VASP Conjugate-Gradient optimizer
 CHAIN: Read ICHAIN            0

 POSCAR: Au Pd
  positions in cartesian coordinates

 ion  position               nearest neighbor table
   1  0.250  0.750  0.592-  27 2.75  37 2.75   8 2.75  34 2.75  11 2.75  46 2.75  44 2.75   2 2.75
                            30 2.75
   2  0.000  0.750  0.592-  13 2.75  30 2.75   6 2.75   8 2.75  34 2.75  43 2.75   1 2.75  10 2.75
                             9 2.75
   3  0.167  0.167  0.500-  48 2.75  11 2.75   5 2.75  27 2.75  29 2.75  40 2.75  17 2.75  25 2.75
                            36 2.75   7 2.75  32 2.75  12 2.75
   4  0.083  0.583  0.408-  30 2.75  23 2.75   7 2.75  33 2.75  45 2.75  20 2.75  31 2.75  29 2.75
                             9 2.75
   5  0.000  0.250  0.592-  40 2.75   3 2.75   8 2.75  11 2.75  22 2.75   6 2.75  12 2.75  41 2.75
                            36 2.75
   6  0.000  0.500  0.592-   9 2.75  29 2.75   2 2.75  10 2.75  12 2.75   5 2.75  22 2.75  34 2.75
                            40 2.75
   7  0.083  0.333  0.408-  29 2.75  20 2.75   4 2.75  32 2.75  48 2.75  45 2.75  42 2.75   3 2.75
                            40 2.75
   8  0.000  0.000  0.592-  36 2.75  27 2.75   5 2.75   1 2.75   2 2.75  41 2.75  11 2.75  43 2.75
                            13 2.75
   9  0.917  0.667  0.500-  20 2.75   6 2.75  10 2.75  13 2.75  26 2.75  29 2.75  40 2.75  30 2.75
                            21 2.75  23 2.75   2 2.75   4 2.75
  10  0.750  0.750  0.592-  26 2.75   9 2.75  14 2.75  22 2.75   6 2.75  43 2.75   2 2.75  44 2.75
                            21 2.75
  11  0.250  0.000  0.592-   3 2.75  17 2.75   5 2.75  12 2.75   1 2.75  44 2.75   8 2.75  14 2.75
                            27 2.75
  12  0.250  0.250  0.592-  29 2.75  25 2.75  14 2.75   6 2.75  11 2.75  34 2.75  16 2.75   5 2.75
                             3 2.75
  13  0.917  0.917  0.500-  23 2.75   2 2.75  43 2.75  30 2.75  36 2.75  39 2.75   9 2.75  26 2.75
                            27 2.75  18 2.75  33 2.75   8 2.75
  14  0.500  0.000  0.592-  25 2.75  26 2.75  16 2.75  10 2.75  12 2.75  44 2.75  43 2.75  11 2.75
                            17 2.75
  15  0.583  0.333  0.408-  19 2.75  18 2.75  24 2.75  31 2.75  47 2.75  45 2.75  42 2.75  39 2.75
                            35 2.75
  16  0.500  0.250  0.592-  35 2.75  39 2.75  14 2.75  34 2.75  43 2.75  46 2.75  12 2.75  41 2.75
                            25 2.75
  17  0.417  0.917  0.500-  28 2.75  44 2.75  11 2.75  25 2.75   3 2.75  37 2.75  21 2.75  27 2.75
                            26 2.75  32 2.75  38 2.75  14 2.75
  18  0.833  0.083  0.408-  36 2.75  23 2.75  33 2.75  15 2.75  42 2.75  24 2.75  48 2.75  13 2.75
                            39 2.75
  19  0.667  0.417  0.500-  15 2.75  41 2.75  46 2.75  37 2.75  39 2.75  21 2.75  36 2.75  35 2.75
                            40 2.75  47 2.75  22 2.75  42 2.75
  20  0.833  0.583  0.408-   9 2.75   7 2.75  23 2.75  38 2.75  42 2.75   4 2.75  47 2.75  40 2.75
                            21 2.75
  21  0.667  0.667  0.500-  47 2.75  22 2.75  44 2.75  26 2.75  40 2.75  19 2.75  17 2.75  37 2.75
                             9 2.75  38 2.75  20 2.75  10 2.75
  22  0.750  0.500  0.592-  21 2.75  40 2.75   5 2.75  10 2.75  41 2.75  44 2.75   6 2.75  46 2.75
                            19 2.75
  23  0.833  0.833  0.408-  13 2.75   4 2.75  18 2.75  20 2.75  24 2.75  33 2.75  38 2.75   9 2.75
                            26 2.75
  24  0.583  0.083  0.408-  39 2.75  23 2.75  38 2.75  15 2.75  45 2.75  32 2.75  18 2.75  26 2.75
                            25 2.75
  25  0.417  0.167  0.500-  32 2.75  14 2.75  12 2.75  26 2.75  29 2.75  17 2.75  35 2.75   3 2.75
                            39 2.75  45 2.75  16 2.75  24 2.75
  26  0.667  0.917  0.500-  38 2.75  10 2.75  14 2.75  21 2.75  25 2.75   9 2.75  39 2.75  13 2.75
                            17 2.75  24 2.75  23 2.75  43 2.75
  27  0.167  0.917  0.500-  33 2.75   1 2.75   8 2.75  30 2.75   3 2.75  36 2.75  37 2.75  13 2.75
                            17 2.75  48 2.75  28 2.75  11 2.75
  28  0.333  0.833  0.408-  17 2.75  31 2.75  32 2.75  47 2.75  48 2.75  33 2.75  38 2.75  37 2.75
                            27 2.75
  29  0.167  0.417  0.500-   7 2.75  12 2.75   6 2.75   9 2.75   3 2.75  25 2.75  30 2.75  35 2.75
                            40 2.75   4 2.75  34 2.75  45 2.75
  30  0.167  0.667  0.500-   4 2.75  34 2.75   2 2.75  27 2.75  29 2.75  13 2.75  35 2.75   9 2.75
                            37 2.75  33 2.75   1 2.75  31 2.75
  31  0.333  0.583  0.408-  37 2.75  28 2.75  33 2.75  15 2.75  45 2.75   4 2.75  47 2.75  35 2.75
                            30 2.75
  32  0.333  0.083  0.408-  25 2.75   7 2.75  28 2.75  38 2.75  45 2.75  24 2.75  48 2.75  17 2.75
                             3 2.75
  33  0.083  0.833  0.408-  27 2.75  18 2.75   4 2.75  31 2.75  48 2.75  23 2.75  28 2.75  30 2.75
                            13 2.75
  34  0.250  0.500  0.592-  30 2.75  35 2.75  12 2.75  16 2.75   1 2.75   2 2.75   6 2.75  46 2.75
                            29 2.75
  35  0.417  0.417  0.500-  45 2.75  16 2.75  34 2.75  25 2.75  37 2.75  39 2.75  30 2.75  29 2.75
                            19 2.75  31 2.75  15 2.75  46 2.75
  36  0.917  0.167  0.500-  18 2.75   8 2.75  41 2.75  19 2.75  27 2.75  40 2.75  13 2.75   3 2.75
                            39 2.75  42 2.75   5 2.75  48 2.75
  37  0.417  0.667  0.500-  31 2.75  46 2.75   1 2.75  27 2.75  17 2.75  35 2.75  19 2.75  30 2.75
                            21 2.75  28 2.75  44 2.75  47 2.75
  38  0.583  0.833  0.408-  26 2.75  24 2.75  20 2.75  32 2.75  47 2.75  23 2.75  28 2.75  21 2.75
                            17 2.75
  39  0.667  0.167  0.500-  24 2.75  43 2.75  16 2.75  13 2.75  26 2.75  35 2.75  19 2.75  36 2.75
                            25 2.75  15 2.75  41 2.75  18 2.75
  40  0.917  0.417  0.500-  42 2.75   5 2.75  22 2.75  21 2.75   3 2.75  36 2.75   9 2.75  19 2.75
                            29 2.75  20 2.75   6 2.75   7 2.75
  41  0.750  0.250  0.592-  19 2.75  36 2.75  22 2.75   8 2.75  43 2.75  46 2.75  16 2.75   5 2.75
                            39 2.75
  42  0.833  0.333  0.408-  40 2.75  20 2.75  18 2.75  47 2.75  48 2.75  15 2.75   7 2.75  36 2.75
                            19 2.75
  43  0.750  0.000  0.592-  39 2.75  13 2.75   2 2.75  16 2.75  10 2.75  41 2.75  14 2.75   8 2.75
                            26 2.75
  44  0.500  0.750  0.592-  17 2.75  21 2.75  11 2.75  14 2.75  22 2.75  46 2.75   1 2.75  10 2.75
                            37 2.75
  45  0.333  0.333  0.408-  35 2.75  24 2.75  31 2.75  32 2.75   4 2.75   7 2.75  15 2.75  25 2.75
                            29 2.75
  46  0.500  0.500  0.592-  37 2.75  19 2.75   1 2.75  16 2.75  41 2.75  44 2.75  34 2.75  22 2.75
                            35 2.75
  47  0.583  0.583  0.408-  21 2.75  15 2.75  28 2.75  38 2.75  42 2.75  20 2.75  31 2.75  19 2.75
                            37 2.75
  48  0.083  0.083  0.408-   3 2.75   7 2.75  28 2.75  33 2.75  42 2.75  18 2.75  32 2.75  27 2.75
                            36 2.75

  LATTYP: Found a hexagonal cell.
 ALAT       =    11.0025815153
 C/A-ratio  =     2.2260035120

  Lattice vectors:

 A1 = (   5.5012907576,  -9.5285150994,   0.0000000000)
 A2 = ( -11.0025815153,   0.0000000000,   0.0000000000)
 A3 = (   0.0000000000,   0.0000000000, -24.4917850943)

Analysis of symmetry for initial positions (statically):
 Subroutine PRICEL returns:
 Original cell was already a primitive cell.

 Routine SETGRP: Setting up the symmetry group for a
 hexagonal supercell.

 Subroutine GETGRP returns: Found  1 space group operations
 (whereof  1 operations were pure point group operations)
 out of a pool of 24 trial point group operations.

The static configuration has the point symmetry C_1 .

Analysis of symmetry for dynamics (positions and initial velocities):
 Subroutine PRICEL returns:
 Original cell was already a primitive cell.

[...]

The dynamic configuration has the point symmetry C_1 .

Analysis of constrained symmetry for selective dynamics:
 Subroutine PRICEL returns:
 Original cell was already a primitive cell.

 Routine SETGRP: Setting up the symmetry group for a
 hexagonal supercell.

 Subroutine GETGRP returns: Found  1 space group operations
 (whereof  1 operations were pure point group operations)
 out of a pool of 24 trial point group operations.

The constrained configuration has the point symmetry C_1 .

 KPOINTS: Automatic mesh

Automatic generation of k-mesh.
Space group operators:
 irot       det(A)        alpha          n_x          n_y          n_z        tau_x        tau_y        tau_z
    1     1.000000     0.000000     1.000000     0.000000     0.000000     0.000000     0.000000     0.000000

 Subroutine IBZKPT returns following result:

 Found      6 irreducible k-points:

 Following reciprocal coordinates:
            Coordinates               Weight
  0.250000  0.250000  0.000000     16.000000
  0.000000  0.250000  0.000000     16.000000
 -0.250000  0.000000  0.000000     16.000000
 -0.250000  0.250000  0.000000     16.000000
  0.500000 -0.250000  0.000000     16.000000
[...]
 dipolmoment           0.000000      0.000000      0.008079 electrons x Angstroem
 Tr[quadrupol]    -10225.397232

 energy correction for charged system         0.000000 eV
 dipol+quadrupol energy correction           -0.000002 eV
 added-field ion interaction         -0.062015 eV  (added to PSCEN)

  free energy =  -0.192588070598E+03  energy without entropy=  -0.192330990245E+03

 average (electrostatic) potential at core
  the test charge radii are     1.2098  1.1199
  (the norm of the test charge is              1.0000)
       1 -73.9376       2 -73.9703       3 -74.1578       4 -73.9881       5 -74.0550
       6 -74.0762       7 -73.9738       8 -74.0014       9 -74.1731      10 -73.9828
      11 -73.9872      12 -74.0493      13 -74.1434      14 -73.9972      15 -73.9499
      16 -73.8991      17 -74.1207      18 -73.9676      19 -74.1024      20 -74.0261
      21 -74.1812      22 -73.8990      23 -74.0326      24 -73.9752      25 -80.8884
      26 -80.8938      27 -80.8999      28 -80.7832      29 -80.9541      30 -80.9697
      31 -80.7659      32 -80.7863      33 -80.7554      34 -80.8221      35 -80.9514
      36 -80.8982      37 -80.9411      38 -80.7805      39 -80.9128      40 -80.8532
      41 -80.8151      42 -80.7667      43 -80.8302      44 -80.7945      45 -80.7780
      46 -80.8033      47 -80.7631      48 -80.7621

 E-fermi :  -1.0733     XC(G=0):  -4.5468     alpha+bet : -4.5212

[...]

 k-point     6 :      -0.2500    0.5000    0.0000
  band No.  band energies     occupation
      1      -8.5066      2.00000
      2      -8.1265      2.00000
      3      -7.7880      2.00000
      4      -7.6061      2.00000
      5      -7.3174      2.00000
      6      -7.1042      2.00000
      7      -7.0001      2.00000
      8      -6.9654      2.00000
      9      -6.8894      2.00000
     10      -6.8497      2.00000
     11      -6.7791      2.00000
     12      -6.7306      2.00000
     13      -6.7079      2.00000
     14      -6.6562      2.00000
     15      -6.6422      2.00000
     16      -6.5978      2.00000
     17      -6.5221      2.00000
     18      -6.4882      2.00000
     19      -6.4625      2.00000
     20      -6.4430      2.00000
     21      -6.4351      2.00000
     22      -6.3774      2.00000
     23      -6.3412      2.00000
     24      -6.2906      2.00000
     25      -6.2460      2.00000
     26      -6.2239      2.00000
     27      -6.2190      2.00000
     28      -6.2045      2.00000
     29      -6.1857      2.00000
     30      -6.1574      2.00000
     31      -6.1416      2.00000
     32      -6.1066      2.00000
     33      -6.0775      2.00000
     34      -6.0560      2.00000
     35      -6.0130      2.00000
     36      -5.9844      2.00000
     37      -5.9497      2.00000
     38      -5.9313      2.00000
     39      -5.9112      2.00000
     40      -5.8825      2.00000
     41      -5.8580      2.00000
     42      -5.8268      2.00000
     43      -5.8092      2.00000
     44      -5.7688      2.00000
     45      -5.7364      2.00000
     46      -5.7104      2.00000
     47      -5.6666      2.00000
     48      -5.6305      2.00000
     49      -5.5910      2.00000
     50      -5.5712      2.00000
     51      -5.5269      2.00000
     52      -5.5123      2.00000
     53      -5.4836      2.00000
     54      -5.4550      2.00000
     55      -5.4105      2.00000
     56      -5.3976      2.00000
     57      -5.3881      2.00000
     58      -5.3537      2.00000
     59      -5.3381      2.00000
     60      -5.3186      2.00000
[...]
    292       4.2143      0.00000
    293       4.4899      0.00000
    294       4.5430      0.00000
    295       4.6035      0.00000
    296       4.6296      0.00000
    297       4.7033      0.00000
    298       4.7735      0.00000
    299       4.8486      0.00000
    300       4.8850      0.00000
    301       4.9680      0.00000
    302       5.0119      0.00000
    303       5.0535      0.00000
    304       5.0754      0.00000
    305       5.1790      0.00000
    306       5.2241      0.00000

 soft charge-density along one line, spin component           1
         0         1         2         3         4         5         6         7         8         9
 total charge-density along one line

------------------------ aborting loop because EDIFF is reached ----------------------------------------

 VOLUME and BASIS-vectors are now :
  energy-cutoff  :      400.00
  volume of cell :     2567.68
      direct lattice vectors                 reciprocal lattice vectors
    11.002581515  0.000000000  0.000000000     0.090887761 -0.052474073  0.000000000
     5.501290758  9.528515099  0.000000000     0.000000000  0.104948147  0.000000000
     0.000000000  0.000000000 24.491785094     0.000000000  0.000000000  0.040830017

  length of vectors
    11.002581515 11.002581515 24.491785094     0.104948147  0.104948147  0.040830017

 FORCES acting on ions
    electron-ion (+dipol)            ewald-force                    non-local-force                 convergence-correction
   -.114E+02 0.150E+02 -.217E+04   0.121E+02 -.159E+02 0.217E+04   -.628E+00 0.897E+00 0.475E+00   0.499E-02 -.951E-02 -.762E-02
   -.182E+02 -.218E-01 -.229E+04   0.183E+02 -.213E+00 0.229E+04   -.133E+00 0.244E+00 -.165E+00   0.620E-02 -.790E-02 -.163E-01
   0.893E+00 0.365E+01 0.313E+02   -.128E+01 -.355E+01 -.323E+02   0.368E+00 -.109E+00 0.989E+00   0.267E-01 -.532E-03 0.107E-04
   -.225E+02 0.754E+00 0.222E+04   0.239E+02 -.844E+00 -.222E+04   -.967E+00 0.811E-01 -.183E+00   0.119E-01 -.612E-02 0.220E-02
   0.510E+01 0.621E+01 -.221E+04   -.590E+01 -.609E+01 0.221E+04   0.794E+00 -.114E+00 0.146E+00   0.162E-01 0.501E-02 0.346E-02
   -.111E+02 0.902E+01 -.224E+04   0.117E+02 -.944E+01 0.224E+04   -.629E+00 0.417E+00 0.324E+00   -.505E-02 -.180E-02 -.132E-01
   0.259E+01 0.181E+02 0.222E+04   -.257E+01 -.185E+02 -.222E+04   -.730E-01 0.232E+00 -.298E+00   0.188E-01 0.724E-02 -.425E-03
   0.110E+01 -.203E+01 -.222E+04   -.168E+01 0.289E+01 0.222E+04   0.569E+00 -.856E+00 0.141E+00   0.379E-02 -.104E-01 0.669E-02
   0.140E+01 -.362E+00 -.679E+02   -.118E+01 -.159E+00 0.679E+02   -.213E+00 0.528E+00 0.374E-01   0.249E-02 -.174E-02 -.998E-02
   0.118E+02 -.835E+01 -.228E+04   -.122E+02 0.919E+01 0.228E+04   0.365E+00 -.847E+00 -.169E+00   -.134E-01 -.103E-01 -.144E-01
   -.208E+01 0.105E+02 -.224E+04   0.224E+01 -.111E+02 0.224E+04   -.155E+00 0.615E+00 -.613E-01   0.893E-02 -.637E-02 0.297E-02
   -.127E+02 -.178E+01 -.220E+04   0.130E+02 0.234E+01 0.220E+04   -.350E+00 -.573E+00 0.161E+00   -.208E-02 -.223E-02 -.250E-02
   -.949E+01 0.692E+01 -.108E+02   0.975E+01 -.653E+01 0.109E+02   -.250E+00 -.384E+00 -.756E-01   -.180E-01 -.162E-01 -.464E-02
   0.595E+00 -.576E+01 -.221E+04   -.240E+00 0.532E+01 0.221E+04   -.340E+00 0.440E+00 0.135E+00   -.149E-01 0.232E-02 -.365E-02
   0.262E+01 -.200E+02 0.223E+04   -.296E+01 0.207E+02 -.223E+04   0.268E+00 -.389E+00 -.347E+00   -.179E-01 0.157E-01 0.608E-02
   -.917E+01 -.138E+02 -.220E+04   0.986E+01 0.141E+02 0.220E+04   -.674E+00 -.379E+00 0.731E+00   -.371E-02 0.107E-01 -.102E-01
   0.562E+01 -.674E+01 0.624E+02   -.563E+01 0.655E+01 -.634E+02   0.741E-02 0.204E+00 0.103E+01   0.320E-03 -.130E-01 -.533E-02
   -.263E+02 -.782E+00 0.222E+04   0.275E+02 0.110E+01 -.222E+04   -.815E+00 -.257E+00 -.143E+00   -.180E-01 -.250E-02 -.788E-02
   -.714E+01 -.468E+01 0.364E+02   0.717E+01 0.423E+01 -.363E+02   0.536E-02 0.423E+00 -.812E-01   -.280E-01 0.206E-01 -.373E-02
   0.196E+02 0.420E+01 0.222E+04   -.209E+02 -.444E+01 -.222E+04   0.890E+00 0.146E+00 0.287E-01   -.161E-02 0.965E-02 0.324E-03
   -.570E+01 0.269E+01 0.181E+02   0.536E+01 -.238E+01 -.186E+02   0.351E+00 -.318E+00 0.454E+00   -.190E-01 0.108E-01 0.290E-02
   0.267E+02 0.206E+01 -.227E+04   -.274E+02 -.208E+01 0.227E+04   0.717E+00 0.648E-02 -.466E-01   -.130E-01 0.153E-01 -.505E-02
   0.236E+01 0.257E+01 0.221E+04   -.270E+01 -.246E+01 -.221E+04   0.280E+00 -.107E+00 0.187E+00   -.704E-02 -.354E-02 -.473E-03
   0.259E+02 0.172E+01 0.222E+04   -.270E+02 -.171E+01 -.222E+04   0.711E+00 -.374E-01 -.636E+00   -.817E-02 0.365E-02 0.148E-02
   0.676E+01 0.350E+01 0.311E+02   -.642E+01 -.309E+01 -.320E+02   -.334E+00 -.437E+00 0.845E+00   -.652E-02 0.177E-01 -.612E-03
   0.621E+01 0.128E+01 -.416E+01   -.617E+01 -.785E+00 0.422E+01   -.308E-01 -.505E+00 -.596E-01   -.869E-02 0.329E-02 -.680E-02
   -.306E+01 -.203E+01 0.460E+02   0.284E+01 0.170E+01 -.473E+02   0.200E+00 0.341E+00 0.132E+01   0.235E-01 -.178E-01 0.111E-01
   0.568E+01 -.173E+00 0.204E+04   -.595E+01 -.306E-01 -.204E+04   0.165E+00 0.152E+00 -.197E+01   0.867E-02 -.182E-01 0.306E-02
   0.581E+01 0.504E+01 0.227E+02   -.510E+01 -.496E+01 -.226E+02   -.733E+00 -.669E-01 -.405E-01   0.203E-01 -.480E-02 -.135E-01
   -.896E+00 -.838E+01 0.440E+02   0.161E+01 0.799E+01 -.445E+02   -.718E+00 0.399E+00 0.489E+00   0.100E-01 -.155E-01 -.124E-01
   -.637E+01 -.139E+02 0.204E+04   0.651E+01 0.142E+02 -.204E+04   -.109E+00 -.162E+00 -.205E+01   0.602E-02 -.510E-02 0.797E-02
   0.630E+01 0.884E+01 0.204E+04   -.616E+01 -.901E+01 -.204E+04   -.146E+00 0.103E+00 -.172E+01   0.108E-01 -.265E-02 0.207E-02
   -.296E+02 0.100E+00 0.203E+04   0.302E+02 -.213E+00 -.203E+04   -.303E+00 0.114E+00 -.179E+01   0.469E-02 -.195E-01 -.456E-02
   -.204E+02 0.360E+01 -.191E+04   0.205E+02 -.344E+01 0.191E+04   -.110E+00 -.152E+00 0.173E+01   0.845E-02 0.254E-02 -.418E-02
   0.233E+01 -.109E+01 0.551E+02   -.293E+01 0.141E+01 -.550E+02   0.607E+00 -.337E+00 -.567E-01   0.145E-02 0.139E-01 -.171E-01
   -.107E+02 0.257E+01 0.329E+02   0.108E+02 -.244E+01 -.333E+02   -.651E-01 -.161E+00 0.413E+00   -.403E-02 0.198E-01 0.207E-02
   0.251E+01 -.682E+01 0.791E+02   -.312E+01 0.682E+01 -.795E+02   0.607E+00 0.269E-01 0.436E+00   0.295E-02 -.153E-01 -.832E-02
   0.215E+02 -.159E+01 0.203E+04   -.217E+02 0.174E+01 -.203E+04   -.706E-02 -.127E+00 -.156E+01   -.694E-02 -.148E-02 0.255E-02
   0.338E+01 0.122E+01 0.170E+01   -.351E+01 -.136E+01 -.730E+00   0.146E+00 0.112E+00 -.957E+00   -.152E-01 0.164E-01 -.898E-02
   -.909E+00 0.179E+01 -.179E+02   0.912E+00 -.220E+01 0.174E+02   0.480E-02 0.391E+00 0.480E+00   -.190E-02 0.149E-01 0.665E-02
   0.151E+02 -.298E+01 -.195E+04   -.152E+02 0.273E+01 0.195E+04   0.138E+00 0.235E+00 0.171E+01   -.136E-01 0.160E-01 -.305E-02
   -.774E+01 0.124E+01 0.203E+04   0.789E+01 -.135E+01 -.202E+04   -.554E-01 0.975E-01 -.168E+01   -.737E-02 0.148E-01 -.356E-02
   0.815E+00 -.183E+02 -.196E+04   -.784E+00 0.184E+02 0.196E+04   -.162E-01 -.140E+00 0.181E+01   -.810E-02 0.130E-02 -.713E-02
   0.178E+02 0.801E+01 -.193E+04   -.180E+02 -.831E+01 0.193E+04   0.246E+00 0.308E+00 0.125E+01   -.373E-02 -.431E-02 -.557E-02
   0.286E+01 0.679E+00 0.203E+04   -.281E+01 -.660E+00 -.203E+04   -.608E-01 -.835E-02 -.197E+01   0.668E-02 0.741E-02 0.723E-02
   0.889E+01 -.190E+01 -.193E+04   -.902E+01 0.204E+01 0.192E+04   0.139E+00 -.144E+00 0.169E+01   -.468E-02 0.314E-02 -.116E-01
   0.919E+01 -.141E+02 0.204E+04   -.946E+01 0.143E+02 -.204E+04   0.209E+00 -.125E+00 -.155E+01   -.153E-01 0.104E-01 0.679E-02
   -.601E+01 0.143E+02 0.203E+04   0.574E+01 -.145E+02 -.203E+04   0.214E+00 0.120E+00 -.183E+01   0.128E-01 -.769E-02 -.821E-02
   0.393E-02 0.626E-01 0.254E+01   0.270E-12 0.147E-12 0.387E-11   0.890E-01 -.105E+00 -.244E+01   -.493E-01 0.379E-01 -.146E+00

 POSITION                                       TOTAL-FORCE (eV/Angst)
      6.90079      7.11523     14.85831        -0.005394     -0.002880      0.002337
      4.14633      7.14123     15.04627         0.006003      0.001564      0.014337
      2.74232      1.58242     12.40625         0.003865     -0.005535      0.004175
      4.12597      5.55830     10.00000         0.454388     -0.014452     -0.192262
      1.35438      2.38491     14.94575         0.006625      0.005062     -0.000478
      2.76070      4.75658     14.98169         0.002641     -0.002001      0.010660
      2.75065      3.17617     10.00000        -0.031541     -0.225771     -0.189794
     -0.00759      0.01279     14.94064        -0.002497     -0.006755      0.002910
     13.77379      6.33028     12.52868         0.002180      0.005557      0.005230
     12.37150      7.16369     15.03108        -0.001073     -0.009533      0.010534
      2.75752     -0.02162     14.97626         0.007502      0.007134     -0.003284
      4.14754      2.39310     14.91483         0.002309     -0.007102      0.000532
     15.14917      8.73237     12.46539        -0.004325     -0.005054      0.000124
      5.51800     -0.00026     14.92217        -0.000535     -0.000458      0.001386
      8.25194      3.17617     10.00000        -0.087479      0.306097     -0.280906
      6.90870      2.40404     14.86775         0.010906     -0.000352      0.005805
      9.62082      8.73361     12.37736        -0.002839      0.002384      0.001922
      9.62726      0.79404     10.00000         0.457485      0.060423     -0.216505
      9.62948      3.95153     12.41319         0.002740     -0.005742      0.003178
     12.37790      5.55830     10.00000        -0.396546     -0.081302     -0.198606
     10.99033      6.35016     12.42870        -0.002290      0.000953     -0.005654
     10.96463      4.76705     15.00816         0.008564      0.003302      0.004714
     13.75323      7.94043     10.00000        -0.072600     -0.002353     -0.235143
      6.87661      0.79404     10.00000        -0.431757     -0.024067     -0.091455
      5.52030      1.60101     12.41151        -0.000704     -0.005873      0.001467
     12.37564      8.73909     12.46046         0.004478     -0.003586     -0.005691
      6.87129      8.71650     12.39209         0.006144     -0.002469     -0.008720
      8.25194      7.94043     10.00000        -0.097327     -0.069340      0.073979
      4.14979      3.95858     12.42501        -0.002236      0.001424      0.000856
      5.52625      6.33843     12.39787         0.003801     -0.005204      0.008369
      6.87661      5.55830     10.00000         0.036485      0.154876      0.116897
      4.12597      0.79404     10.00000         0.004528     -0.078737      0.116283
      5.50129      7.94043     10.00000         0.286998     -0.018467      0.224383
      5.51304      4.77016     14.74655         0.006021      0.004200     -0.008440
      6.85630      3.96410     12.38942         0.000025     -0.005444      0.004663
     11.01045      1.57852     12.41424        -0.000925     -0.003209     -0.000242
      8.21498      6.34343     12.36009        -0.001423      0.003511      0.004099
     11.00258      7.94043     10.00000        -0.160588      0.027727      0.128589
      8.23781      1.58264     12.45366         0.001214     -0.003126      0.002769
     12.37916      3.95378     12.47289         0.004376     -0.006893     -0.004537
      9.62684      2.38057     14.79149        -0.005167     -0.001732     -0.001477
     11.00258      3.17617     10.00000         0.089810     -0.001355      0.220369
      8.26142      0.00303     14.81603         0.005828      0.002021      0.002876
      9.62818      7.13930     14.79054         0.007663     -0.003507     -0.003948
      5.50129      3.17617     10.00000        -0.007080      0.018286      0.207069
      8.25331      4.76588     14.73984         0.004842      0.000020     -0.002670
      9.62726      5.55830     10.00000        -0.074753      0.123228      0.096356
      1.37532      0.79404     10.00000        -0.038343     -0.125468      0.172944
    total drift:                                0.043649     -0.004757     -0.047412

  FREE ENERGIE OF THE ION-ELECTRON SYSTEM (eV)
  free  energy   TOTEN  =      -192.58807060 eV

  energy  without entropy=     -192.33099025  energy(sigma->0) =     -192.45953042

 d Force = 0.3170034E-03[ 0.139E-03, 0.495E-03]  d Energy = 0.3042094E-03 0.128E-04
 d Force = 0.2426877E+02[ 0.243E+02, 0.243E+02]  d Ewald  = 0.2426877E+02 0.756E-06

 stress matrix after NEB project (eV)
      0.00000      0.00000      0.00000
      0.00000      0.00000      0.00000
      0.00000      0.00000      0.00000
  FORCES: max atom, RMS     0.015621    0.006950
  FORCE total and by dimension    0.048152    0.014337
  Stress total and by dimension    0.000000    0.000000
 Conjugate gradient step on ions:
 trial-energy change:   -0.000304  1 .order   -0.000317   -0.000495   -0.000139
  (g-gl).g = 0.971E-04      g.g   = 0.180E-03  gl.gl    = 0.440E-03
 g(Force)  = 0.180E-03   g(Stress)= 0.000E+00 ortho     = 0.241E-04
 gamma     =   0.22080
 trial     =   2.67157
 opt step  =   4.25619  (harmonic =   3.71236) maximal distance =0.00370674
 next E    =  -192.588109   (d E  =  -0.00034)

 reached required accuracy - stopping structural energy minimisation