 vasp.5.4.1 24Jun15 (build Mar 14 2019 10:18:33) complex

 executed on INTEL-19.0.2+OPENMPI date 2023.01.24  11:29:51

 INCAR:
 POTCAR:    PAW_PBE Au 04Oct2007
 POTCAR:    PAW_PBE O 08Apr2002
 POTCAR:    PAW_PBE Pd 04Jan2005
 POTCAR:    PAW_PBE Au 04Oct2007

 POTCAR:    PAW_PBE O 08Apr2002

 POTCAR:    PAW_PBE Pd 04Jan2005

 Optimization of the real space projectors (new method)

 maximal supplied QI-value         = 15.12
 optimisation between [QCUT,QGAM] = [ 10.13, 20.41] = [ 28.73,116.64] Ry
 Optimized for a Real-space Cutoff    1.51 Angstroem

   l    n(q)    QCUT    max X(q) W(low)/X(q) W(high)/X(q)  e(spline)
   2      8    10.129    60.898    0.46E-03    0.46E-03    0.14E-06
   2      8    10.129    58.894    0.47E-03    0.47E-03    0.14E-06
   0      9    10.129   109.617    0.16E-03    0.11E-03    0.54E-07
   0      9    10.129    75.026    0.15E-03    0.11E-03    0.52E-07
   1      9    10.129    16.344    0.96E-04    0.15E-03    0.14E-06
   1      9    10.129    10.160    0.81E-04    0.12E-03    0.11E-06
 Optimization of the real space projectors (new method)

[...]

   l    n(q)    QCUT    max X(q) W(low)/X(q) W(high)/X(q)  e(spline)
   0      8    10.150    20.381    0.22E-03    0.32E-03    0.29E-06
   0      8    10.150    15.268    0.23E-03    0.35E-03    0.30E-06
   1      8    10.150     5.964    0.46E-03    0.53E-03    0.21E-06
   1      8    10.150     5.382    0.38E-03    0.45E-03    0.19E-06
 Optimization of the real space projectors (new method)

 maximal supplied QI-value         = 14.36
 optimisation between [QCUT,QGAM] = [ 10.20, 20.39] = [ 29.12,116.47] Ry
 Optimized for a Real-space Cutoff    1.51 Angstroem

   l    n(q)    QCUT    max X(q) W(low)/X(q) W(high)/X(q)  e(spline)
   2      8    10.197    59.108    0.26E-03    0.14E-03    0.96E-07
   2      8    10.197    58.101    0.27E-03    0.14E-03    0.98E-07
   0      9    10.197   102.235    0.54E-04    0.60E-05    0.72E-07
   0      9    10.197    58.388    0.52E-04    0.60E-05    0.68E-07
   1      9    10.197    22.191    0.18E-03    0.25E-03    0.79E-07
   1      9    10.197    15.590    0.15E-03    0.21E-03    0.69E-07
  PAW_PBE Au 04Oct2007                  :
  PAW_PBE O 08Apr2002                   :
  PAW_PBE Pd 04Jan2005                  :

 POSCAR: Au  O Pd
  positions in direct lattice
  velocities in cartesian coordinates
 exchange correlation table for  LEXCH =        8
   RHO(1)=    0.500       N(1)  =     2000
   RHO(2)=  100.500       N(2)  =     4000

 VTST: version 3.2, (02/03/18)

 CHAIN: initializing optimizer

 OPT: Using VASP Conjugate-Gradient optimizer
 CHAIN: Read ICHAIN            0

 POSCAR: Au  O Pd
  positions in direct lattice
  velocities in cartesian coordinates

 ion  position               nearest neighbor table
   1  0.083  0.083  0.382-   7 2.75  44 2.75  53 2.75  56 2.75  38 2.75   6 2.75  50 2.87  16 2.93
                            21 2.95
   2  0.243  0.490  0.568-  29 2.10  41 2.68  14 2.71  33 2.75  34 2.76  46 2.87  24 2.93  15 2.95
                            20 3.08  13 3.49
   3  0.424  0.661  0.501-  54 2.77  42 2.78  11 2.78  15 2.79  22 2.80  21 2.84  20 2.84  24 2.88
                            43 3.47  23 3.51
   4  0.664  0.166  0.471-  54 2.76  50 2.76  15 2.76  45 2.77  18 2.77  55 2.78  12 2.79  36 2.81
                            39 2.83   6 2.85  51 2.88  41 2.90
   5  0.999  0.989  0.570-  27 2.09  51 2.72  14 2.73  17 2.78  55 2.79  12 2.90  21 2.98  20 3.01
                            50 3.05  49 3.25
   6  0.833  0.083  0.382-  39 2.75  40 2.75  53 2.75  56 2.75   1 2.75  36 2.75   4 2.85  50 2.85
                            12 2.94
   7  0.083  0.333  0.382-   1 2.75  10 2.75  38 2.75  52 2.75  35 2.75  53 2.75  16 2.95  34 2.98
                             8 3.01
   8  0.908  0.418  0.477-  54 2.73  48 2.73  50 2.74  42 2.75  16 2.77  34 2.77  46 2.85  53 2.93
                            52 2.96   7 3.01  22 3.11
   9  0.536  0.705  0.648-  32 1.93  30 1.96  22 2.90  20 2.97  13 3.16  19 3.43
  10  0.083  0.583  0.382-   7 2.75  35 2.75  40 2.75  56 2.75  52 2.75  23 2.75  24 2.94  48 2.95
                            34 2.99
  11  0.417  0.911  0.478-  42 2.69  21 2.72  45 2.74  18 2.78   3 2.78  16 2.83  37 2.84  17 2.93
                            44 2.95  47 2.97  38 3.01
  12  0.916  0.913  0.475-  24 2.75  48 2.76  51 2.77  50 2.78  45 2.78   4 2.79  21 2.79   5 2.90
                            40 2.90  56 2.92   6 2.94  14 2.94
  13  0.551  0.413  0.633-  29 2.03  32 2.05  28 2.05  41 2.72  55 2.85  22 3.00   9 3.16  20 3.48
                             2 3.49
  14  0.001  0.740  0.568-   2 2.71   5 2.73  51 2.79  19 2.81  46 2.84  24 2.88  48 2.91  12 2.94
                            20 3.17
  15  0.415  0.419  0.475-  54 2.70  24 2.71   4 2.76  41 2.78   3 2.79  18 2.80  34 2.81  23 2.90
                            35 2.92  39 2.92   2 2.95
  16  0.160  0.168  0.477-  50 2.72  18 2.76  34 2.76   8 2.77  33 2.79  21 2.79  11 2.83   1 2.93
                             7 2.95  17 2.99  38 2.99
  17  0.249  0.993  0.572-  27 2.27  37 2.67  33 2.69  20 2.69   5 2.78  11 2.93  21 2.96  16 2.99

  18  0.411  0.167  0.475-  16 2.76   4 2.77  45 2.78  34 2.78  11 2.78  15 2.80  33 2.86  38 2.88
                            41 2.89  35 2.91  36 2.94  37 2.94
  19  0.742  0.748  0.560-  30 2.17  48 2.74  46 2.75  51 2.77  37 2.80  14 2.81  22 2.83  45 2.86
                            42 2.87   9 3.43
  20  0.280  0.742  0.596-  29 2.16  17 2.69   3 2.84   9 2.97   5 3.01   2 3.08  14 3.17  13 3.48
                            21 3.56
  21  0.172  0.909  0.475-  24 2.72  11 2.72  12 2.79  16 2.79  50 2.83   3 2.84  44 2.89  56 2.90
                             1 2.95  17 2.96   5 2.98  20 3.56
  22  0.671  0.534  0.559-  25 2.20  54 2.72  42 2.78   3 2.80  55 2.81  19 2.83   9 2.90  13 3.00
                             8 3.11  46 3.24  49 3.30
  23  0.333  0.583  0.382-  35 2.75  39 2.75  44 2.75  56 2.75  10 2.75  43 2.75  15 2.90  24 2.94
                             3 3.51
  24  0.167  0.665  0.476-  15 2.71  21 2.72  34 2.74  12 2.75  48 2.83   3 2.88  14 2.88   2 2.93
                            10 2.94  23 2.94  56 2.96
  25  0.829  0.491  0.618-  49 1.99  46 2.07  22 2.20
  26  0.094  0.320  0.616-  33 1.97  49 1.99  46 2.03
  27  0.066  0.077  0.627-  49 1.99   5 2.09  17 2.27
  28  0.760  0.265  0.633-  55 2.00  49 2.05  13 2.05
  29  0.340  0.539  0.628-  13 2.03   2 2.10  20 2.16
  30  0.586  0.839  0.620-   9 1.96  37 2.04  19 2.17
  31  0.586  0.090  0.607-  51 1.97  41 1.98  37 2.04
  32  0.532  0.557  0.686-   9 1.93  13 2.05
  33  0.248  0.238  0.567-  26 1.97  37 2.62  17 2.69   2 2.75  16 2.79  18 2.86  46 2.87  34 2.87
                            41 2.88
  34  0.160  0.419  0.479-  48 2.73  24 2.74  16 2.76   2 2.76   8 2.77  18 2.78  15 2.81  33 2.87
                            46 2.97   7 2.98  10 2.99  35 3.04
  35  0.333  0.333  0.382-  10 2.75  23 2.75  36 2.75  38 2.75   7 2.75  39 2.75  18 2.91  15 2.92
                            34 3.04
  36  0.583  0.083  0.382-  35 2.75  39 2.75  40 2.75  47 2.75  38 2.75   6 2.75  45 2.80   4 2.81
                            18 2.94
  37  0.488  0.001  0.569-  31 2.04  30 2.04  33 2.62  17 2.67  19 2.80  11 2.84  51 2.86  41 2.91
                            18 2.94  45 3.11
  38  0.333  0.083  0.382-   7 2.75  35 2.75  44 2.75  47 2.75   1 2.75  36 2.75  18 2.88  16 2.99
                            11 3.01
  39  0.583  0.333  0.382-  54 2.74  23 2.75  36 2.75  43 2.75   6 2.75  53 2.75  35 2.75   4 2.83
                            15 2.92
  40  0.833  0.833  0.382-   6 2.75  10 2.75  36 2.75  52 2.75  47 2.75  56 2.75  45 2.81  12 2.90
                            48 2.92
  41  0.497  0.260  0.564-  31 1.98   2 2.68  13 2.72  55 2.76  15 2.78  51 2.85  33 2.88  18 2.89
                             4 2.90  37 2.91
  42  0.661  0.668  0.468-  11 2.69  43 2.73  45 2.73  48 2.74   8 2.75  54 2.75  47 2.75   3 2.78
                            22 2.78  52 2.79  19 2.87
  43  0.583  0.583  0.382-  42 2.73  39 2.75  44 2.75  47 2.75  53 2.75  52 2.75  23 2.75  54 2.76
                             3 3.47
  44  0.333  0.833  0.382-   1 2.75  23 2.75  38 2.75  43 2.75  47 2.75  56 2.75  21 2.89  11 2.95

  45  0.663  0.915  0.469-  48 2.73  42 2.73  11 2.74  47 2.76   4 2.77  18 2.78  12 2.78  36 2.80
                            40 2.81  19 2.86  51 2.90  37 3.11
  46  0.982  0.492  0.572-  26 2.03  25 2.07  19 2.75  14 2.84   8 2.85   2 2.87  33 2.87  49 2.92
                            34 2.97  48 3.04  22 3.24
  47  0.583  0.833  0.382-  42 2.75  38 2.75  36 2.75  43 2.75  52 2.75  44 2.75  40 2.75  45 2.76
                            11 2.97
  48  0.910  0.666  0.475-  34 2.73  45 2.73   8 2.73  19 2.74  42 2.74  12 2.76  24 2.83  52 2.88
                            14 2.91  40 2.92  10 2.95  46 3.04
  49  0.935  0.282  0.623-  27 1.99  26 1.99  25 1.99  28 2.05  55 2.80  46 2.92   5 3.25  22 3.30

  50  0.914  0.166  0.473-  55 2.69  16 2.72   8 2.74   4 2.76  12 2.78  54 2.79  21 2.83   6 2.85
                            53 2.86   1 2.87   5 3.05
  51  0.750  0.996  0.562-  31 1.97   5 2.72  12 2.77  19 2.77  14 2.79  55 2.80  41 2.85  37 2.86
                             4 2.88  45 2.90
  52  0.833  0.583  0.382-   7 2.75  40 2.75  47 2.75  53 2.75  10 2.75  43 2.75  42 2.79  48 2.88
                             8 2.96
  53  0.833  0.333  0.382-   1 2.75   6 2.75  43 2.75  52 2.75   7 2.75  39 2.75  54 2.80  50 2.86
                             8 2.93
  54  0.661  0.418  0.468-  15 2.70  22 2.72   8 2.73  39 2.74  42 2.75   4 2.76  43 2.76   3 2.77
                            50 2.79  53 2.80  55 2.84
  55  0.753  0.248  0.557-  28 2.00  50 2.69  41 2.76   4 2.78   5 2.79  51 2.80  49 2.80  22 2.81
                            54 2.84  13 2.85
  56  0.083  0.833  0.382-   1 2.75   6 2.75  10 2.75  23 2.75  40 2.75  44 2.75  21 2.90  12 2.92
                            24 2.96

  LATTYP: Found a hexagonal cell.
 ALAT       =    11.0025815153
 C/A-ratio  =     2.3805127059

  Lattice vectors:

 A1 = (   5.5012907576,  -9.5285150994,   0.0000000000)
 A2 = ( -11.0025815153,   0.0000000000,   0.0000000000)
 A3 = (   0.0000000000,   0.0000000000, -26.1917850943)

Analysis of symmetry for initial positions (statically):
 Subroutine PRICEL returns:
 Original cell was already a primitive cell.

 Routine SETGRP: Setting up the symmetry group for a
 hexagonal supercell.

 Subroutine GETGRP returns: Found  1 space group operations
 (whereof  1 operations were pure point group operations)
 out of a pool of 24 trial point group operations.

The static configuration has the point symmetry C_1 .

Analysis of symmetry for dynamics (positions and initial velocities):
 Subroutine PRICEL returns:
 Original cell was already a primitive cell.

[...]

The dynamic configuration has the point symmetry C_1 .

Analysis of constrained symmetry for selective dynamics:
 Subroutine PRICEL returns:
 Original cell was already a primitive cell.

 Routine SETGRP: Setting up the symmetry group for a
 hexagonal supercell.

 Subroutine GETGRP returns: Found  1 space group operations
[...]
      7     -19.1410      2.00000
      8     -18.9591      2.00000
      9      -9.0264      2.00000
     10      -8.7008      2.00000
     11      -8.4990      2.00000
     12      -8.3769      2.00000
     13      -8.1732      2.00000
     14      -7.9172      2.00000
     15      -7.8393      2.00000
     16      -7.7141      2.00000
     17      -7.6355      2.00000
     18      -7.5564      2.00000
     19      -7.5408      2.00000
     20      -7.5007      2.00000
     21      -7.4330      2.00000
     22      -7.4006      2.00000
     23      -7.3519      2.00000
     24      -7.3111      2.00000
     25      -7.2608      2.00000
     26      -7.2301      2.00000
     27      -7.2077      2.00000
     28      -7.1752      2.00000
     29      -7.1305      2.00000
     30      -7.0919      2.00000
     31      -7.0634      2.00000
     32      -7.0279      2.00000
     33      -6.9724      2.00000
     34      -6.9350      2.00000
     35      -6.9082      2.00000
     36      -6.8954      2.00000
     37      -6.8609      2.00000
     38      -6.8428      2.00000
     39      -6.7858      2.00000
     40      -6.7613      2.00000
     41      -6.7172      2.00000
     42      -6.6813      2.00000
     43      -6.6593      2.00000
     44      -6.6358      2.00000
     45      -6.6257      2.00000
     46      -6.5902      2.00000
     47      -6.5760      2.00000
     48      -6.5629      2.00000
     49      -6.5363      2.00000
     50      -6.4990      2.00000
     51      -6.4893      2.00000
     52      -6.4660      2.00000
     53      -6.4440      2.00000
     54      -6.4209      2.00000
     55      -6.3887      2.00000
     56      -6.3808      2.00000
     57      -6.3438      2.00000
     58      -6.3420      2.00000
     59      -6.3209      2.00000
     60      -6.2849      2.00000
[...]
    322       3.8888      0.00000
    323       4.0235      0.00000
    324       4.0592      0.00000
    325       4.2085      0.00000
    326       4.3217      0.00000
    327       4.4837      0.00000
    328       4.5210      0.00000
    329       4.6137      0.00000
    330       4.7096      0.00000
    331       4.7515      0.00000
    332       4.7977      0.00000
    333       4.8453      0.00000
    334       4.9051      0.00000
    335       5.0206      0.00000
    336       5.0367      0.00000

 soft charge-density along one line, spin component           1
         0         1         2         3         4         5         6         7         8         9
 total charge-density along one line

------------------------ aborting loop because EDIFF is reached ----------------------------------------

 VOLUME and BASIS-vectors are now :
  energy-cutoff  :      400.00
  volume of cell :     2745.90
      direct lattice vectors                 reciprocal lattice vectors
    11.002581515  0.000000000  0.000000000     0.090887761 -0.052474073  0.000000000
     5.501290758  9.528515099  0.000000000     0.000000000  0.104948147  0.000000000
     0.000000000  0.000000000 26.191785094     0.000000000  0.000000000  0.038179910

  length of vectors
    11.002581515 11.002581515 26.191785094     0.104948147  0.104948147  0.038179910

 FORCES acting on ions
    electron-ion (+dipol)            ewald-force                    non-local-force                 convergence-correction
   -.245E+02 0.224E+02 0.249E+04   0.246E+02 -.227E+02 -.249E+04   0.468E-02 0.104E+00 -.383E+00   -.101E-02 0.121E-02 0.162E-02
   0.707E+02 -.416E+02 -.177E+04   -.720E+02 0.404E+02 0.177E+04   0.125E+01 0.126E+01 0.943E+00   0.341E-02 0.189E-02 0.630E-02
   0.408E+02 -.417E+02 -.270E+03   -.396E+02 0.409E+02 0.270E+03   -.122E+01 0.809E+00 -.121E+00   0.258E-02 -.112E-02 -.626E-02
   0.820E+01 -.970E+00 0.431E+03   -.759E+01 0.141E+01 -.431E+03   -.608E+00 -.440E+00 -.401E+00   0.740E-03 0.207E-02 0.164E-02
   0.364E+02 0.110E+03 -.178E+04   -.376E+02 -.110E+03 0.178E+04   0.119E+01 0.476E+00 0.124E+00   -.561E-02 -.487E-02 0.437E-02
   -.276E+01 0.108E+02 0.252E+04   0.249E+01 -.108E+02 -.252E+04   0.166E+00 -.834E-01 0.545E-01   0.967E-03 0.191E-02 0.107E-02
   -.882E+01 -.270E+01 0.248E+04   0.948E+01 0.290E+01 -.248E+04   -.520E+00 -.856E-01 0.811E-01   -.226E-02 0.714E-03 0.112E-02
   -.168E+02 0.402E+02 0.242E+03   0.165E+02 -.400E+02 -.242E+03   0.230E+00 -.175E+00 0.469E+00   -.499E-02 -.302E-03 -.348E-02
   -.346E+02 -.246E+03 -.281E+04   0.329E+02 0.246E+03 0.281E+04   0.172E+01 0.805E+00 0.209E+00   -.556E-02 -.783E-02 0.312E-02
   -.768E+00 -.197E+01 0.248E+04   0.248E-01 0.229E+01 -.248E+04   0.482E+00 -.200E+00 -.249E+00   -.151E-03 -.180E-03 0.103E-02
   0.364E+02 0.530E+02 0.255E+03   -.356E+02 -.537E+02 -.255E+03   -.759E+00 0.673E+00 -.464E+00   -.505E-02 -.146E-02 -.174E-02
   -.342E+02 0.326E+02 0.323E+03   0.337E+02 -.325E+02 -.322E+03   0.552E+00 -.735E-01 -.919E+00   -.225E-02 -.225E-03 0.197E-02
   0.175E+03 0.139E+03 -.265E+04   -.175E+03 -.138E+03 0.265E+04   0.369E+00 -.112E+01 -.152E-01   0.186E-02 0.518E-02 0.335E-02
   -.195E+02 -.563E+01 -.196E+04   0.186E+02 0.550E+01 0.196E+04   0.915E+00 0.123E+00 0.856E+00   -.287E-02 -.164E-02 0.187E-02
   -.118E+02 -.717E+02 0.332E+03   0.122E+02 0.714E+02 -.331E+03   -.379E+00 0.343E+00 -.923E+00   0.275E-02 0.241E-02 0.925E-03
   0.413E+02 0.123E+00 0.247E+03   -.416E+02 0.562E+00 -.246E+03   0.300E+00 -.687E+00 -.643E+00   -.439E-02 0.820E-03 -.195E-02
   -.441E+02 0.406E+02 -.182E+04   0.458E+02 -.416E+02 0.182E+04   -.171E+01 0.101E+01 0.119E+01   -.433E-02 0.981E-03 -.504E-02
   0.272E+02 0.281E+01 0.361E+03   -.276E+02 -.277E+01 -.360E+03   0.428E+00 -.374E-01 -.738E+00   0.254E-02 0.248E-02 -.119E-02
   -.714E+02 -.455E+01 -.159E+04   0.734E+02 0.425E+01 0.159E+04   -.200E+01 0.309E+00 0.222E+01   -.249E-02 -.327E-02 0.256E-03
   0.985E+02 -.119E+03 -.219E+04   -.980E+02 0.120E+03 0.219E+04   -.483E+00 -.729E+00 0.141E+01   0.175E-01 -.442E-02 0.350E-02
   -.248E+02 0.422E+02 0.299E+03   0.248E+02 -.427E+02 -.300E+03   -.126E-01 0.452E+00 0.996E+00   0.202E-02 0.288E-02 0.328E-02
   0.527E+02 -.707E+02 -.138E+04   -.534E+02 0.708E+02 0.138E+04   0.719E+00 -.998E-01 0.247E+01   -.653E-02 0.859E-03 -.108E-03
   -.441E+02 -.331E+02 0.245E+04   0.448E+02 0.330E+02 -.245E+04   -.288E+00 0.205E+00 0.363E+00   0.264E-02 -.377E-03 0.163E-02
   -.539E+02 -.172E+02 0.276E+03   0.536E+02 0.170E+02 -.276E+03   0.271E+00 0.268E+00 0.272E+00   -.857E-03 -.255E-02 0.913E-03
   -.777E+02 -.125E+03 -.149E+04   0.751E+02 0.139E+03 0.150E+04   0.261E+01 -.141E+02 -.176E+02   -.128E-02 0.118E-02 0.365E-02
   -.146E+03 0.211E+02 -.153E+04   0.155E+03 -.214E+02 0.155E+04   -.893E+01 0.262E+00 -.207E+02   -.461E-03 0.146E-02 0.756E-03
   -.383E+02 0.123E+03 -.158E+04   0.435E+02 -.131E+03 0.161E+04   -.515E+01 0.781E+01 -.213E+02   0.836E-03 -.693E-03 0.181E-02
   0.331E+02 0.173E+03 -.161E+04   -.339E+02 -.189E+03 0.163E+04   0.778E+00 0.158E+02 -.187E+02   -.343E-02 0.268E-02 0.539E-03
   0.185E+03 -.330E+02 -.152E+04   -.196E+03 0.371E+02 0.154E+04   0.102E+02 -.410E+01 -.190E+02   0.233E-03 -.637E-03 0.693E-03
   -.777E+02 -.874E+02 -.150E+04   0.899E+02 0.961E+02 0.151E+04   -.122E+02 -.871E+01 -.137E+02   -.165E-02 -.464E-02 0.173E-02
   0.448E+01 0.220E+02 -.156E+04   -.411E+01 -.226E+02 0.159E+04   -.381E+00 0.600E+00 -.270E+02   0.312E-02 0.193E-02 0.316E-02
   0.450E+02 -.145E+01 -.179E+04   -.501E+02 -.384E+01 0.182E+04   0.509E+01 0.529E+01 -.264E+02   -.184E-02 0.109E-02 -.170E-02
   -.446E+02 0.272E+02 -.159E+04   0.433E+02 -.275E+02 0.159E+04   0.124E+01 0.204E+00 -.184E+00   -.117E-02 0.532E-02 0.296E-02
   0.150E+02 -.717E+01 0.240E+03   -.149E+02 0.763E+01 -.239E+03   -.130E+00 -.459E+00 -.157E+01   0.779E-03 0.459E-02 0.138E-02
   0.317E+01 0.506E+01 0.227E+04   -.321E+01 -.561E+01 -.227E+04   0.879E-01 0.268E+00 -.130E+01   0.816E-03 0.141E-02 0.785E-03
   0.309E+02 0.149E+01 0.231E+04   -.313E+02 -.170E+01 -.231E+04   0.322E-01 0.278E+00 -.201E+01   0.111E-02 0.295E-03 0.778E-03
   0.103E+03 -.351E+01 -.160E+04   -.103E+03 0.352E+01 0.160E+04   0.354E+00 -.117E-01 -.131E+01   -.486E-02 -.145E-02 -.548E-02
   -.351E+01 0.220E+02 0.227E+04   0.402E+01 -.221E+02 -.227E+04   -.310E+00 -.439E-01 -.107E+01   -.111E-02 -.459E-03 0.635E-03
   0.121E+02 -.267E+02 0.230E+04   -.118E+02 0.270E+02 -.230E+04   -.330E+00 -.191E+00 -.190E+01   0.252E-02 0.238E-02 0.197E-02
   0.554E+01 0.160E+02 0.229E+04   -.580E+01 -.161E+02 -.229E+04   0.181E+00 -.321E-02 -.195E+01   -.199E-03 -.667E-03 0.735E-03
   0.689E+02 -.728E+02 -.148E+04   -.684E+02 0.718E+02 0.148E+04   -.529E+00 0.102E+01 -.133E+01   0.388E-02 0.750E-02 0.216E-02
   0.437E+02 -.229E+02 0.460E+03   -.436E+02 0.229E+02 -.461E+03   -.966E-01 0.156E-01 0.732E+00   -.472E-03 -.456E-02 0.962E-03
   0.347E+02 -.356E+02 0.226E+04   -.342E+02 0.355E+02 -.226E+04   -.533E+00 0.146E+00 -.192E+01   0.265E-04 -.159E-02 0.262E-02
   -.151E+02 0.356E+02 0.223E+04   0.154E+02 -.354E+02 -.223E+04   -.303E-01 -.292E+00 -.916E+00   0.574E-03 -.216E-02 0.119E-02
   0.228E+02 0.107E+02 0.417E+03   -.230E+02 -.113E+02 -.419E+03   0.165E+00 0.609E+00 0.112E+01   0.138E-02 -.403E-03 -.777E-03
   -.128E+03 -.109E+03 -.160E+04   0.127E+03 0.109E+03 0.160E+04   0.464E+00 0.411E+00 -.123E+01   0.193E-02 -.299E-02 0.169E-02
   0.324E+02 -.903E+00 0.229E+04   -.323E+02 0.788E+00 -.229E+04   -.277E+00 0.251E+00 -.243E+01   -.781E-03 -.276E-02 0.715E-03
   -.272E+02 0.199E+02 0.310E+03   0.262E+02 -.199E+02 -.309E+03   0.102E+01 -.345E-02 -.448E+00   0.186E-03 0.168E-03 0.534E-03
   -.890E+02 0.910E+02 -.239E+04   0.897E+02 -.912E+02 0.239E+04   -.734E+00 0.115E+00 0.126E+00   0.179E-02 0.415E-02 -.272E-02
   -.696E+02 0.235E+01 0.308E+03   0.692E+02 -.137E+01 -.308E+03   0.346E+00 -.989E+00 -.194E+00   0.125E-02 0.306E-02 0.536E-03
   -.843E+02 0.114E+03 -.156E+04   0.840E+02 -.113E+03 0.156E+04   0.283E+00 -.543E+00 -.162E+00   0.467E-03 -.130E-02 -.311E-02
   0.736E+01 -.344E+01 0.228E+04   -.760E+01 0.401E+01 -.228E+04   0.179E+00 -.511E+00 -.182E+01   -.233E-02 -.107E-02 0.146E-02
   -.497E+01 -.237E+02 0.229E+04   0.454E+01 0.240E+02 -.228E+04   0.364E+00 -.656E-01 -.207E+01   -.128E-02 0.172E-02 0.275E-02
   0.182E+02 -.363E+02 0.452E+03   -.178E+02 0.364E+02 -.452E+03   -.347E+00 -.109E+00 -.563E-01   0.156E-02 0.343E-02 -.230E-02
   -.273E+02 0.450E+02 -.121E+04   0.267E+02 -.455E+02 0.121E+04   0.602E+00 0.512E+00 -.585E+00   -.261E-02 -.118E-02 0.470E-04
   -.226E+02 0.161E+02 0.227E+04   0.225E+02 -.161E+02 -.226E+04   0.569E-01 -.503E-01 -.138E+01   0.503E-03 -.166E-03 0.378E-03
   0.530E+01 -.651E+01 0.182E+03   -.306E-12 0.568E-13 0.000E+00   -.527E+01 0.649E+01 -.182E+03   -.119E-01 0.108E-01 0.387E-01

 POSITION                                       TOTAL-FORCE (eV/Angst)
      1.37532      0.79404     10.00000         0.113090     -0.187622     -0.259219
      5.36881      4.66807     14.88061        -0.002235     -0.005898     -0.003496
      8.30530      6.29275     13.13657        -0.005581      0.003616      0.000902
      8.21622      1.58346     12.34767         0.007506      0.002508     -0.003600
     16.44211      9.43840     14.91562         0.004552      0.006227     -0.001136
      9.62726      0.79404     10.00000        -0.101704     -0.072867     -0.548971
      2.75065      3.17617     10.00000         0.137948      0.115796     -0.082188
     12.29221      3.98613     12.50140        -0.000781      0.004283      0.013927
      9.77106      6.71799     16.97830         0.004208      0.012525     -0.004372
      4.12597      5.55830     10.00000        -0.261903      0.114281     -0.054641
      9.60702      8.68042     12.51741         0.005679     -0.005116      0.009562
     15.10749      8.69825     12.45231         0.006507      0.006130     -0.001191
      8.32958      3.93363     16.57437         0.003210     -0.001912     -0.004748
      4.08494      7.05418     14.88926         0.001859     -0.003611     -0.003146
      6.87474      3.99172     12.43729        -0.000343      0.001437      0.006300
      2.68471      1.59623     12.49741         0.005947     -0.000849     -0.000023
      8.21447      9.45958     14.97829        -0.001330     -0.001733      0.009182
      5.44285      1.58811     12.44016         0.000488     -0.000492      0.000585
     12.28413      7.12676     14.66193         0.010095      0.006126      0.003527
      7.13869      7.07052     15.60803        -0.015329     -0.009396      0.006744
      6.89089      8.65801     12.44664        -0.003461     -0.001202     -0.013722
     10.32096      5.08940     14.64365         0.004963     -0.003232      0.000225
      6.87661      5.55830     10.00000         0.442626      0.077956     -0.175672
      5.49668      6.32813     12.47532         0.002490      0.002852      0.006208
     11.82455      4.68297     16.19257        -0.000011     -0.002393      0.008155
      2.79620      3.04869     16.14655        -0.002754      0.001204      0.003050
      1.14047      0.73335     16.41232         0.008260     -0.002616      0.004808
      9.82088      2.52471     16.58269        -0.004527      0.006921     -0.004543
      6.69455      5.12796     16.44807        -0.008431      0.007969      0.002007
     11.07052      7.99110     16.24252        -0.003095      0.000233     -0.004007
      6.94551      0.85986     15.91337        -0.008685     -0.008498      0.001084
      8.91440      5.30804     17.97472        -0.006471      0.008633     -0.000000
      4.03895      2.26296     14.83944        -0.006896     -0.005639     -0.000875
      4.05980      3.99216     12.54597         0.001843      0.000414     -0.001117
      5.50129      3.17617     10.00000         0.051228     -0.280556      0.240434
      6.87661      0.79404     10.00000        -0.313408      0.064592     -0.077234
      5.37919      0.00772     14.92225         0.005874      0.000666      0.003099
      4.12597      0.79404     10.00000         0.197841     -0.162428      0.195928
      8.25194      3.17617     10.00000        -0.065418      0.051998     -0.174012
     13.75323      7.94043     10.00000        -0.077603     -0.078225      0.137775
      6.90542      2.48084     14.76833        -0.001102     -0.004596      0.001118
     10.94470      6.36295     12.24992        -0.005258      0.000880     -0.002926
      9.62726      5.55830     10.00000        -0.085966      0.042971      0.007654
      8.25194      7.94043     10.00000         0.262837     -0.078346      0.366827
     12.33495      8.71919     12.29153        -0.005375     -0.005450      0.004847
     13.50865      4.69077     14.99060         0.007325     -0.003460     -0.010282
     11.00258      7.94043     10.00000        -0.143547      0.133742     -0.041422
     13.67559      6.34206     12.44259        -0.003231     -0.004579     -0.000267
     11.84353      2.69318     16.31083        -0.004753      0.003172      0.004519
     10.97329      1.58421     12.37956         0.001884     -0.003105      0.002595
     13.73310      9.48772     14.72230         0.001819     -0.001430     -0.003791
     12.37790      5.55830     10.00000        -0.071780      0.054818      0.117382
     11.00258      3.17617     10.00000        -0.068425      0.247036      0.096561
      9.57000      3.98810     12.26812        -0.001380     -0.004256     -0.000149
      9.65219      2.36373     14.59581         0.003022      0.002326      0.000740
      5.50129      7.94043     10.00000        -0.012322     -0.041803      0.221004
    total drift:                                0.022453     -0.013571     -0.061261

  FREE ENERGIE OF THE ION-ELECTRON SYSTEM (eV)
  free  energy   TOTEN  =      -232.16706906 eV

  energy  without entropy=     -231.94722753  energy(sigma->0) =     -232.05714829

 d Force = 0.2121483E-03[ 0.158E-03, 0.266E-03]  d Energy = 0.2077394E-03 0.441E-05
 d Force = 0.3389688E+01[ 0.339E+01, 0.339E+01]  d Ewald  = 0.3389686E+01 0.176E-05

 stress matrix after NEB project (eV)
      0.00000      0.00000      0.00000
      0.00000      0.00000      0.00000
      0.00000      0.00000      0.00000
  FORCES: max atom, RMS     0.019203    0.007586
  FORCE total and by dimension    0.056767    0.015329
  Stress total and by dimension    0.000000    0.000000
 Conjugate gradient step on ions:
 trial-energy change:   -0.000208  1 .order   -0.000212   -0.000266   -0.000158
  (g-gl).g = 0.170E-03      g.g   = 0.231E-03  gl.gl    = 0.296E-03
 g(Force)  = 0.231E-03   g(Stress)= 0.000E+00 ortho     =-0.615E-05
 gamma     =   0.57308
 trial     =   1.17014
 opt step  =   2.87602  (harmonic =   2.87602) maximal distance =0.00346904
 next E    =  -232.167189   (d E  =  -0.00033)

 reached required accuracy - stopping structural energy minimisation