 vasp.5.4.1 24Jun15 (build Mar 14 2019 10:18:33) complex

 executed on INTEL-19.0.2+OPENMPI date 2023.01.31  00:33:06

 INCAR:
 POTCAR:    PAW_PBE Au 04Oct2007
 POTCAR:    PAW_PBE Pd 04Jan2005
 POTCAR:    PAW_PBE Au 04Oct2007

 POTCAR:    PAW_PBE Pd 04Jan2005

 Optimization of the real space projectors (new method)

 maximal supplied QI-value         = 15.12
 optimisation between [QCUT,QGAM] = [ 10.13, 20.41] = [ 28.73,116.64] Ry
 Optimized for a Real-space Cutoff    1.51 Angstroem

   l    n(q)    QCUT    max X(q) W(low)/X(q) W(high)/X(q)  e(spline)
   2      8    10.129    60.898    0.46E-03    0.46E-03    0.14E-06
   2      8    10.129    58.894    0.47E-03    0.47E-03    0.14E-06
   0      9    10.129   109.617    0.16E-03    0.11E-03    0.54E-07
   0      9    10.129    75.026    0.15E-03    0.11E-03    0.52E-07
   1      9    10.129    16.344    0.96E-04    0.15E-03    0.14E-06
   1      9    10.129    10.160    0.81E-04    0.12E-03    0.11E-06
 Optimization of the real space projectors (new method)

 maximal supplied QI-value         = 14.36
 optimisation between [QCUT,QGAM] = [ 10.20, 20.39] = [ 29.12,116.47] Ry
 Optimized for a Real-space Cutoff    1.51 Angstroem

   l    n(q)    QCUT    max X(q) W(low)/X(q) W(high)/X(q)  e(spline)
   2      8    10.197    59.108    0.26E-03    0.14E-03    0.96E-07
   2      8    10.197    58.101    0.27E-03    0.14E-03    0.98E-07
   0      9    10.197   102.235    0.54E-04    0.60E-05    0.72E-07
   0      9    10.197    58.388    0.52E-04    0.60E-05    0.68E-07
   1      9    10.197    22.191    0.18E-03    0.25E-03    0.79E-07
   1      9    10.197    15.590    0.15E-03    0.21E-03    0.69E-07
  PAW_PBE Au 04Oct2007                  :
  PAW_PBE Pd 04Jan2005                  :

 POSCAR: Au Pd
  positions in cartesian coordinates
 exchange correlation table for  LEXCH =        8
   RHO(1)=    0.500       N(1)  =     2000
   RHO(2)=  100.500       N(2)  =     4000

 VTST: version 3.2, (02/03/18)

 CHAIN: initializing optimizer

 OPT: Using VASP Conjugate-Gradient optimizer
 CHAIN: Read ICHAIN            0

 POSCAR: Au Pd
  positions in cartesian coordinates

 ion  position               nearest neighbor table
   1  0.250  0.750  0.592-  31 2.75  13 2.75  18 2.75  23 2.75  11 2.75  38 2.75  19 2.75  25 2.75
                            34 2.75
   2  0.833  0.333  0.408-  37 2.75  26 2.75  36 2.75  17 2.75  44 2.75  29 2.75   5 2.75   3 2.75
                            45 2.75
   3  0.917  0.167  0.500-  17 2.75  38 2.75   9 2.75  33 2.75  37 2.75  31 2.75  45 2.75  27 2.75
                            16 2.75   2 2.75  36 2.75   6 2.75
   4  0.833  0.833  0.408-  33 2.75  17 2.75  20 2.75   7 2.75  44 2.75  41 2.75  35 2.75  47 2.75
                            32 2.75
   5  0.083  0.333  0.408-  14 2.75  10 2.75   7 2.75  36 2.75  44 2.75   2 2.75  46 2.75  27 2.75
                            37 2.75
   6  0.000  0.250  0.592-  37 2.75  27 2.75   8 2.75  11 2.75  38 2.75  40 2.75   9 2.75  15 2.75
                             3 2.75
   7  0.083  0.583  0.408-  34 2.75   5 2.75   4 2.75  35 2.75  46 2.75  44 2.75  28 2.75  14 2.75
                            47 2.75
   8  0.000  0.500  0.592-  47 2.75  14 2.75  15 2.75  25 2.75   6 2.75  48 2.75  18 2.75  40 2.75
                            37 2.75
   9  0.750  0.250  0.592-  45 2.75   3 2.75  24 2.75  38 2.75  40 2.75  23 2.75   6 2.75  39 2.75
                            16 2.75
  10  0.333  0.083  0.408-  21 2.75   5 2.75  30 2.75  41 2.75  46 2.75  20 2.75  36 2.75  42 2.75
                            27 2.75
  11  0.250  0.000  0.592-  27 2.75  42 2.75  15 2.75  19 2.75   1 2.75   6 2.75  38 2.75  22 2.75
                            31 2.75
  12  0.417  0.417  0.500-  46 2.75  39 2.75  18 2.75  21 2.75  34 2.75  16 2.75  13 2.75  45 2.75
                            14 2.75  28 2.75  23 2.75  29 2.75
  13  0.417  0.667  0.500-  28 2.75  23 2.75   1 2.75  12 2.75  31 2.75  42 2.75  45 2.75  43 2.75
                            34 2.75  30 2.75  26 2.75  19 2.75
  14  0.167  0.417  0.500-   5 2.75  15 2.75   8 2.75  21 2.75  27 2.75  34 2.75  47 2.75  37 2.75
                            12 2.75   7 2.75  46 2.75  18 2.75
  15  0.250  0.250  0.592-  14 2.75  21 2.75   8 2.75  18 2.75  11 2.75  22 2.75   6 2.75  39 2.75
                            27 2.75
  16  0.667  0.167  0.500-  20 2.75  24 2.75  39 2.75  32 2.75  33 2.75  12 2.75  45 2.75  21 2.75
                             3 2.75  29 2.75   9 2.75  17 2.75
  17  0.833  0.083  0.408-   3 2.75   2 2.75   4 2.75  29 2.75  35 2.75  20 2.75  36 2.75  33 2.75
                            16 2.75
  18  0.250  0.500  0.592-  34 2.75  12 2.75  15 2.75  25 2.75   1 2.75  39 2.75  23 2.75   8 2.75
                            14 2.75
  19  0.500  0.750  0.592-  42 2.75  43 2.75  23 2.75  40 2.75  11 2.75  22 2.75   1 2.75  48 2.75
                            13 2.75
  20  0.583  0.083  0.408-  16 2.75   4 2.75  29 2.75  41 2.75  46 2.75  17 2.75  10 2.75  32 2.75
                            21 2.75
  21  0.417  0.167  0.500-  10 2.75  22 2.75  15 2.75  12 2.75  14 2.75  32 2.75  42 2.75  16 2.75
                            27 2.75  46 2.75  20 2.75  39 2.75
  22  0.500  0.000  0.592-  21 2.75  32 2.75  15 2.75  19 2.75  39 2.75  48 2.75  24 2.75  11 2.75
                            42 2.75
  23  0.500  0.500  0.592-  13 2.75  45 2.75   1 2.75  19 2.75  39 2.75   9 2.75  40 2.75  18 2.75
                            12 2.75
  24  0.750  0.000  0.592-  16 2.75  33 2.75  25 2.75   9 2.75  39 2.75  48 2.75  22 2.75  38 2.75
                            32 2.75
  25  0.000  0.750  0.592-  33 2.75  34 2.75  24 2.75   8 2.75  18 2.75  38 2.75   1 2.75  48 2.75
                            47 2.75
  26  0.583  0.583  0.408-  43 2.75  29 2.75  30 2.75  41 2.75   2 2.75  28 2.75  44 2.75  45 2.75
                            13 2.75
  27  0.167  0.167  0.500-  36 2.75  11 2.75   6 2.75  31 2.75  14 2.75  37 2.75  42 2.75   3 2.75
                            21 2.75   5 2.75  15 2.75  10 2.75
  28  0.333  0.583  0.408-  13 2.75  29 2.75  30 2.75  35 2.75  46 2.75   7 2.75  26 2.75  12 2.75
                            34 2.75
  29  0.583  0.333  0.408-  45 2.75  20 2.75  26 2.75  28 2.75  17 2.75   2 2.75  46 2.75  16 2.75
                            12 2.75
  30  0.333  0.833  0.408-  42 2.75  26 2.75  28 2.75  36 2.75  10 2.75  41 2.75  35 2.75  13 2.75
                            31 2.75
  31  0.167  0.917  0.500-  35 2.75   1 2.75  38 2.75  27 2.75  34 2.75   3 2.75  13 2.75  33 2.75
                            42 2.75  36 2.75  11 2.75  30 2.75
  32  0.667  0.917  0.500-  41 2.75  48 2.75  22 2.75  21 2.75  43 2.75  47 2.75  16 2.75  42 2.75
                            33 2.75  20 2.75   4 2.75  24 2.75
  33  0.917  0.917  0.500-   4 2.75  25 2.75  24 2.75   3 2.75  16 2.75  34 2.75  47 2.75  31 2.75
                            32 2.75  17 2.75  38 2.75  35 2.75
  34  0.167  0.667  0.500-   7 2.75  18 2.75  25 2.75  12 2.75  14 2.75  31 2.75  33 2.75  13 2.75
                            47 2.75  35 2.75   1 2.75  28 2.75
  35  0.083  0.833  0.408-  31 2.75  17 2.75  28 2.75   7 2.75  36 2.75   4 2.75  30 2.75  34 2.75
                            33 2.75
  36  0.083  0.083  0.408-  27 2.75   5 2.75   2 2.75  30 2.75  35 2.75  17 2.75  10 2.75  31 2.75
                             3 2.75
  37  0.917  0.417  0.500-   2 2.75   6 2.75  40 2.75  27 2.75   3 2.75  43 2.75  47 2.75  45 2.75
                            14 2.75  44 2.75   8 2.75   5 2.75
  38  0.000  0.000  0.592-   3 2.75  31 2.75   6 2.75   9 2.75  25 2.75   1 2.75  11 2.75  24 2.75
                            33 2.75
  39  0.500  0.250  0.592-  12 2.75  16 2.75  18 2.75  22 2.75  23 2.75  24 2.75  15 2.75   9 2.75
                            21 2.75
  40  0.750  0.500  0.592-  43 2.75  37 2.75  19 2.75   6 2.75   9 2.75  48 2.75  23 2.75   8 2.75
                            45 2.75
  41  0.583  0.833  0.408-  32 2.75  20 2.75  26 2.75  10 2.75  44 2.75   4 2.75  30 2.75  43 2.75
                            42 2.75
  42  0.417  0.917  0.500-  30 2.75  19 2.75  11 2.75  21 2.75  27 2.75  13 2.75  43 2.75  32 2.75
                            31 2.75  10 2.75  41 2.75  22 2.75
  43  0.667  0.667  0.500-  26 2.75  40 2.75  19 2.75  37 2.75  32 2.75  42 2.75  45 2.75  13 2.75
                            47 2.75  41 2.75  44 2.75  48 2.75
  44  0.833  0.583  0.408-  47 2.75   4 2.75   5 2.75  41 2.75   2 2.75   7 2.75  26 2.75  37 2.75
                            43 2.75
  45  0.667  0.417  0.500-  29 2.75   9 2.75  23 2.75  16 2.75   3 2.75  13 2.75  43 2.75  37 2.75
                            12 2.75  26 2.75  40 2.75   2 2.75
  46  0.333  0.333  0.408-  12 2.75  10 2.75   7 2.75  20 2.75  28 2.75   5 2.75  29 2.75  21 2.75
                            14 2.75
  47  0.917  0.667  0.500-  44 2.75   8 2.75  48 2.75  33 2.75  37 2.75  14 2.75  32 2.75  34 2.75
                            43 2.75   4 2.75  25 2.75   7 2.75
  48  0.750  0.750  0.592-  32 2.75  47 2.75  24 2.75   8 2.75  40 2.75  22 2.75  25 2.75  19 2.75
                            43 2.75

  LATTYP: Found a hexagonal cell.
 ALAT       =    11.0025815153
 C/A-ratio  =     2.2260035120

  Lattice vectors:

 A1 = (   5.5012907576,  -9.5285150994,   0.0000000000)
 A2 = ( -11.0025815153,   0.0000000000,   0.0000000000)
 A3 = (   0.0000000000,   0.0000000000, -24.4917850943)

Analysis of symmetry for initial positions (statically):
 Subroutine PRICEL returns:
 Original cell was already a primitive cell.

 Routine SETGRP: Setting up the symmetry group for a
 hexagonal supercell.

 Subroutine GETGRP returns: Found  1 space group operations
 (whereof  1 operations were pure point group operations)
 out of a pool of 24 trial point group operations.

The static configuration has the point symmetry C_1 .

Analysis of symmetry for dynamics (positions and initial velocities):
 Subroutine PRICEL returns:
 Original cell was already a primitive cell.

[...]

The dynamic configuration has the point symmetry C_1 .

Analysis of constrained symmetry for selective dynamics:
 Subroutine PRICEL returns:
 Original cell was already a primitive cell.

 Routine SETGRP: Setting up the symmetry group for a
 hexagonal supercell.

 Subroutine GETGRP returns: Found  1 space group operations
 (whereof  1 operations were pure point group operations)
 out of a pool of 24 trial point group operations.

The constrained configuration has the point symmetry C_1 .

 KPOINTS: Automatic mesh

Automatic generation of k-mesh.
Space group operators:
 irot       det(A)        alpha          n_x          n_y          n_z        tau_x        tau_y        tau_z
    1     1.000000     0.000000     1.000000     0.000000     0.000000     0.000000     0.000000     0.000000

 Subroutine IBZKPT returns following result:

 Found      6 irreducible k-points:

 Following reciprocal coordinates:
            Coordinates               Weight
  0.250000  0.250000  0.000000     16.000000
  0.000000  0.250000  0.000000     16.000000
 -0.250000  0.000000  0.000000     16.000000
 -0.250000  0.250000  0.000000     16.000000
  0.500000 -0.250000  0.000000     16.000000
[...]
  1.3186  1.3186  0.2428  0.1383

[...]

----------------------------------------- Iteration   18(   6)  ---------------------------------------

 eigenvalue-minimisations  :  3155
 total energy-change (2. order) :-0.8910429E-06  (-0.6063499E-06)
 number of electron     503.9999103 magnetization
 augmentation part      197.2749821 magnetization

 DIPCOR: dipole corrections for dipol
 direction  3 min pos     1,
 dipolmoment           0.000000      0.000000      0.010635 electrons x Angstroem
 Tr[quadrupol]    -10276.320740

 energy correction for charged system         0.000000 eV
 dipol+quadrupol energy correction           -0.000004 eV
 added-field ion interaction         -0.080926 eV  (added to PSCEN)

  free energy =  -0.192591511303E+03  energy without entropy=  -0.192357703918E+03

 average (electrostatic) potential at core
  the test charge radii are     1.2098  1.1199
  (the norm of the test charge is              1.0000)
       1 -73.9868       2 -73.9545       3 -74.1378       4 -73.9487       5 -73.9939
       6 -73.9892       7 -73.9362       8 -73.9570       9 -73.9331      10 -73.9700
      11 -74.0672      12 -74.2006      13 -74.0963      14 -74.1760      15 -74.0513
      16 -74.2031      17 -74.0220      18 -73.9953      19 -73.9730      20 -74.0230
      21 -74.2176      22 -74.0230      23 -73.9788      24 -73.9264      25 -80.8061
      26 -80.7774      27 -80.9044      28 -80.7847      29 -80.7726      30 -80.7782
      31 -80.9337      32 -80.9148      33 -80.9293      34 -80.9332      35 -80.7380
      36 -80.7699      37 -80.9448      38 -80.8114      39 -80.8109      40 -80.8438
      41 -80.7661      42 -80.9407      43 -80.9482      44 -80.7545      45 -80.8854
      46 -80.8001      47 -80.9597      48 -80.8471

 E-fermi :  -1.0710     XC(G=0):  -4.5471     alpha+bet : -4.5213

[...]

 k-point     6 :      -0.2500    0.5000    0.0000
  band No.  band energies     occupation
      1      -8.5768      2.00000
      2      -8.0594      2.00000
      3      -7.9015      2.00000
      4      -7.5278      2.00000
      5      -7.2969      2.00000
      6      -7.1155      2.00000
      7      -7.0648      2.00000
      8      -6.9472      2.00000
      9      -6.9069      2.00000
     10      -6.8305      2.00000
     11      -6.8037      2.00000
     12      -6.7650      2.00000
     13      -6.7380      2.00000
     14      -6.6822      2.00000
     15      -6.6285      2.00000
     16      -6.6225      2.00000
     17      -6.5660      2.00000
     18      -6.5558      2.00000
     19      -6.5068      2.00000
     20      -6.4392      2.00000
     21      -6.3986      2.00000
     22      -6.3909      2.00000
     23      -6.3354      2.00000
     24      -6.3245      2.00000
     25      -6.2910      2.00000
     26      -6.2380      2.00000
     27      -6.2266      2.00000
     28      -6.1867      2.00000
     29      -6.1663      2.00000
     30      -6.1381      2.00000
     31      -6.1212      2.00000
     32      -6.0889      2.00000
     33      -6.0679      2.00000
     34      -6.0342      2.00000
     35      -6.0202      2.00000
     36      -6.0060      2.00000
     37      -5.9854      2.00000
     38      -5.9608      2.00000
     39      -5.9405      2.00000
     40      -5.9119      2.00000
     41      -5.8857      2.00000
     42      -5.8545      2.00000
     43      -5.8144      2.00000
     44      -5.7950      2.00000
     45      -5.7563      2.00000
     46      -5.7086      2.00000
     47      -5.6915      2.00000
     48      -5.6429      2.00000
     49      -5.6312      2.00000
     50      -5.5582      2.00000
     51      -5.5159      2.00000
     52      -5.5002      2.00000
     53      -5.4647      2.00000
     54      -5.4459      2.00000
     55      -5.4248      2.00000
     56      -5.4133      2.00000
     57      -5.3895      2.00000
     58      -5.3613      2.00000
     59      -5.3288      2.00000
     60      -5.3107      2.00000
[...]
    292       4.2046      0.00000
    293       4.5098      0.00000
    294       4.5346      0.00000
    295       4.6095      0.00000
    296       4.6295      0.00000
    297       4.7167      0.00000
    298       4.8293      0.00000
    299       4.8595      0.00000
    300       4.9032      0.00000
    301       4.9682      0.00000
    302       5.0296      0.00000
    303       5.0421      0.00000
    304       5.0732      0.00000
    305       5.1233      0.00000
    306       5.2350      0.00000

 soft charge-density along one line, spin component           1
         0         1         2         3         4         5         6         7         8         9
 total charge-density along one line

------------------------ aborting loop because EDIFF is reached ----------------------------------------

 VOLUME and BASIS-vectors are now :
  energy-cutoff  :      400.00
  volume of cell :     2567.68
      direct lattice vectors                 reciprocal lattice vectors
    11.002581515  0.000000000  0.000000000     0.090887761 -0.052474073  0.000000000
     5.501290758  9.528515099  0.000000000     0.000000000  0.104948147  0.000000000
     0.000000000  0.000000000 24.491785094     0.000000000  0.000000000  0.040830017

  length of vectors
    11.002581515 11.002581515 24.491785094     0.104948147  0.104948147  0.040830017

 FORCES acting on ions
    electron-ion (+dipol)            ewald-force                    non-local-force                 convergence-correction
   0.408E+01 -.897E+01 -.219E+04   -.512E+01 0.962E+01 0.219E+04   0.105E+01 -.656E+00 0.203E+00   -.742E-02 0.204E-02 0.231E-01
   0.714E+01 -.154E+02 0.222E+04   -.748E+01 0.162E+02 -.222E+04   0.224E+00 -.449E+00 -.268E+00   -.398E-02 -.237E-02 -.197E-02
   -.183E+01 -.733E+01 0.249E+01   0.269E+01 0.685E+01 -.243E+01   -.833E+00 0.487E+00 -.702E-01   -.129E-01 0.381E-03 0.190E-01
   0.640E+01 0.945E+01 0.222E+04   -.669E+01 -.995E+01 -.222E+04   0.173E+00 0.314E+00 -.613E+00   -.999E-03 0.231E-02 -.587E-03
   0.196E+01 0.364E+01 0.222E+04   -.230E+01 -.380E+01 -.222E+04   0.254E+00 0.107E+00 -.295E+00   0.517E-02 0.294E-02 -.222E-02
   0.760E+01 0.485E+00 -.223E+04   -.785E+01 -.313E+00 0.223E+04   0.244E+00 -.160E+00 0.198E+00   -.230E-02 -.131E-01 0.153E-01
   -.161E+02 -.832E+00 0.223E+04   0.167E+02 0.117E+01 -.223E+04   -.292E+00 -.230E+00 -.245E+00   -.398E-02 -.853E-02 -.253E-02
   0.132E+02 -.208E+02 -.224E+04   -.140E+02 0.218E+02 0.224E+04   0.738E+00 -.101E+01 0.309E+00   0.142E-01 -.607E-02 0.151E-01
   -.426E+01 0.169E+01 -.227E+04   0.431E+01 -.126E+01 0.227E+04   -.367E-01 -.417E+00 -.110E-01   -.127E-01 -.141E-01 0.102E-01
   0.112E+02 0.150E+02 0.222E+04   -.117E+02 -.155E+02 -.222E+04   0.298E+00 0.315E+00 -.298E+00   0.923E-02 0.140E-01 -.126E-02
   0.803E+01 0.128E+02 -.217E+04   -.870E+01 -.128E+02 0.217E+04   0.679E+00 -.205E-01 0.518E+00   -.562E-02 0.470E-02 0.202E-01
   -.144E+01 -.109E+02 0.390E+02   0.171E+01 0.112E+02 -.401E+02   -.268E+00 -.267E+00 0.110E+01   0.796E-05 -.166E-01 0.172E-01
   0.112E+01 -.645E+00 0.685E+02   -.891E+00 0.108E+01 -.701E+02   -.224E+00 -.425E+00 0.158E+01   0.278E-02 -.140E-01 0.199E-01
   -.638E+00 0.267E+01 -.265E+02   0.747E-01 -.241E+01 0.259E+02   0.556E+00 -.262E+00 0.547E+00   0.778E-02 -.671E-02 0.124E-01
   0.235E+01 0.404E+01 -.228E+04   -.186E+01 -.416E+01 0.228E+04   -.500E+00 0.104E+00 -.628E-01   0.133E-01 0.478E-03 0.108E-01
   -.469E+01 -.145E+01 -.237E+02   0.472E+01 0.146E+01 0.238E+02   -.263E-01 -.181E-01 -.897E-01   -.484E-02 0.433E-02 0.192E-01
   -.119E+02 0.493E-01 0.222E+04   0.125E+02 -.403E+00 -.223E+04   -.375E+00 0.283E+00 -.994E-01   -.887E-02 0.787E-02 0.272E-02
   -.175E+01 -.157E+02 -.226E+04   0.190E+01 0.158E+02 0.226E+04   -.146E+00 -.914E-01 -.181E+00   0.576E-02 -.109E-01 0.130E-01
   -.602E+01 0.454E+01 -.219E+04   0.709E+01 -.502E+01 0.219E+04   -.105E+01 0.486E+00 0.144E+00   -.984E-02 0.401E-02 0.168E-01
   0.776E+01 -.761E+01 0.222E+04   -.813E+01 0.784E+01 -.222E+04   0.253E+00 -.137E+00 0.326E-01   0.343E-02 0.106E-01 0.297E-02
   0.946E+01 0.317E+01 -.182E+02   -.987E+01 -.363E+01 0.183E+02   0.405E+00 0.450E+00 -.154E+00   0.101E-01 0.100E-01 0.171E-01
   -.406E+01 0.162E+02 -.223E+04   0.455E+01 -.164E+02 0.223E+04   -.497E+00 0.178E+00 0.275E+00   0.508E-02 0.202E-01 0.139E-01
   -.730E+01 -.939E+01 -.223E+04   0.777E+01 0.871E+01 0.223E+04   -.459E+00 0.684E+00 -.168E+00   -.138E-01 -.141E-01 0.131E-01
   -.682E+01 0.175E+02 -.224E+04   0.710E+01 -.182E+02 0.224E+04   -.282E+00 0.677E+00 0.400E+00   0.850E-02 0.171E-01 0.117E-01
   0.225E+01 -.880E+01 -.193E+04   -.233E+01 0.897E+01 0.192E+04   0.731E-01 -.164E+00 0.188E+01   0.750E-02 0.811E-02 0.148E-01
   0.602E+01 -.650E+01 0.204E+04   -.580E+01 0.661E+01 -.204E+04   -.193E+00 -.997E-02 -.195E+01   0.173E-02 -.112E-01 -.507E-03
   -.167E+01 -.481E+00 -.387E-01   0.131E+01 -.317E-02 -.459E+00   0.345E+00 0.482E+00 0.486E+00   0.586E-02 0.811E-02 0.141E-01
   -.976E+01 -.464E+01 0.204E+04   0.971E+01 0.473E+01 -.204E+04   0.129E+00 -.538E-01 -.180E+01   -.304E-02 -.169E-01 -.211E-02
   0.537E+01 -.229E+02 0.203E+04   -.540E+01 0.234E+02 -.203E+04   -.382E-01 -.236E+00 -.146E+01   -.452E-02 -.658E-02 0.292E-02
   0.373E+01 0.583E+01 0.204E+04   -.394E+01 -.570E+01 -.204E+04   0.973E-01 -.129E+00 -.196E+01   0.378E-02 -.228E-03 -.520E-02
   -.678E+01 0.396E+01 0.638E+02   0.660E+01 -.391E+01 -.646E+02   0.185E+00 -.495E-01 0.776E+00   -.636E-02 0.677E-02 0.238E-01
   0.247E+01 -.138E+01 0.131E+02   -.273E+01 0.413E+00 -.130E+02   0.271E+00 0.959E+00 -.514E-01   0.568E-02 0.113E-01 0.971E-02
   -.995E+00 -.936E+00 0.262E+02   0.143E+01 0.890E-01 -.258E+02   -.430E+00 0.835E+00 -.475E+00   -.806E-02 0.104E-01 0.191E-01
   -.985E+01 0.380E+01 0.333E+02   0.954E+01 -.296E+01 -.337E+02   0.317E+00 -.826E+00 0.399E+00   -.625E-02 -.966E-02 0.175E-01
   -.262E+02 0.307E+01 0.203E+04   0.268E+02 -.295E+01 -.203E+04   -.203E+00 -.998E-01 -.191E+01   -.118E-01 0.531E-03 -.590E-02
   -.694E+01 0.209E+02 0.203E+04   0.712E+01 -.216E+02 -.203E+04   -.106E+00 0.411E+00 -.171E+01   -.345E-02 0.127E-01 -.433E-02
   -.286E+01 0.651E+01 0.116E+02   0.247E+01 -.580E+01 -.116E+02   0.393E+00 -.716E+00 -.205E-01   0.270E-02 -.364E-02 0.505E-02
   0.139E+01 0.151E+02 -.194E+04   -.147E+01 -.156E+02 0.194E+04   0.941E-01 0.474E+00 0.153E+01   -.774E-02 0.270E-02 0.175E-01
   -.575E+01 0.694E+00 -.198E+04   0.558E+01 -.498E+00 0.198E+04   0.168E+00 -.193E+00 0.989E+00   0.149E-02 -.392E-03 0.909E-02
   -.234E+01 -.136E+02 -.192E+04   0.247E+01 0.139E+02 0.192E+04   -.112E+00 -.253E+00 0.172E+01   -.665E-02 -.849E-02 0.111E-01
   0.165E+02 0.162E+02 0.203E+04   -.167E+02 -.168E+02 -.203E+04   -.451E-02 0.271E+00 -.198E+01   0.903E-02 0.283E-02 -.153E-02
   0.477E+01 0.165E+01 0.315E+02   -.478E+01 -.190E+01 -.324E+02   0.313E-02 0.244E+00 0.873E+00   0.825E-02 0.529E-02 0.168E-01
   0.836E+01 -.187E+01 0.824E+02   -.788E+01 0.179E+01 -.829E+02   -.473E+00 0.867E-01 0.448E+00   -.110E-02 -.893E-03 0.434E-02
   0.180E+02 -.616E+01 0.203E+04   -.184E+02 0.648E+01 -.203E+04   0.217E+00 -.228E+00 -.192E+01   0.481E-02 -.263E-02 -.288E-02
   0.398E+01 -.182E+01 0.210E+02   -.348E+01 0.238E+01 -.215E+02   -.496E+00 -.546E+00 0.426E+00   -.108E-01 -.955E-02 0.883E-02
   -.136E+02 -.101E+02 0.203E+04   0.141E+02 0.103E+02 -.203E+04   -.338E+00 -.108E+00 -.110E+01   0.343E-02 -.275E-02 0.257E-02
   0.138E+01 0.312E+01 0.316E+02   -.176E+01 -.277E+01 -.312E+02   0.373E+00 -.332E+00 -.456E+00   0.290E-02 0.824E-04 0.553E-02
   -.933E+00 0.613E+01 -.192E+04   0.102E+01 -.644E+01 0.192E+04   -.892E-01 0.302E+00 0.179E+01   0.624E-02 0.826E-02 0.108E-01
   -.425E-01 -.576E-01 0.221E+01   -.364E-12 -.375E-12 0.136E-11   0.578E-01 0.643E-01 -.272E+01   -.829E-02 -.142E-02 0.436E+00

 POSITION                                       TOTAL-FORCE (eV/Angst)
      6.85253      7.16067     14.89559        -0.005955     -0.000351     -0.002467
     11.00258      3.17617     10.00000        -0.115987      0.266184     -0.182681
     11.03907      1.58056     12.44712         0.011309      0.007224      0.008503
     13.75323      7.94043     10.00000        -0.116430     -0.182683     -0.154602
      2.75065      3.17617     10.00000        -0.084622     -0.052678     -0.146021
      1.36998      2.39591     14.94535        -0.005682     -0.000473      0.004144
      4.12597      5.55830     10.00000         0.222675      0.098485     -0.244506
      2.72766      4.80381     14.94519        -0.008402      0.012656      0.007901
      9.63165      2.38448     14.99935        -0.002123      0.002446      0.003406
      4.12597      0.79404     10.00000        -0.183415     -0.221249     -0.147014
      2.74078     -0.00421     14.87406         0.002246     -0.000203      0.004343
      6.88637      3.99282     12.40036         0.001597     -0.003146     -0.002971
      8.27303      6.36839     12.35952         0.005837     -0.000076      0.011601
      4.10879      3.98979     12.47119         0.000020     -0.002303      0.005906
      4.13378      2.38773     15.03413         0.005205     -0.010708      0.010239
      8.27085      1.58467     12.47853         0.001632      0.000162     -0.006067
      9.62726      0.79404     10.00000         0.202128     -0.062846     -0.286994
      5.50167      4.77628     15.00688         0.005081      0.005363      0.003875
      9.65870      7.12562     14.88902         0.002844      0.006144     -0.000993
      6.87661      0.79404     10.00000        -0.113644      0.105718     -0.266321
      5.48811      1.58018     12.47316         0.003678     -0.000158     -0.003025
      5.52200     -0.01244     14.93856        -0.001004     -0.003765      0.006401
      8.26325      4.75308     14.96684         0.002599     -0.006373     -0.000470
      8.26784     -0.03255     14.92473         0.007385     -0.005841      0.005024
      4.11857      7.14553     14.75299         0.003482      0.009053     -0.002474
      9.62726      5.55830     10.00000         0.029229      0.092478      0.069322
      2.74551      1.57426     12.44888        -0.001198      0.005970      0.004442
      6.87661      5.55830     10.00000         0.069450      0.012329      0.075444
      8.25194      3.17617     10.00000        -0.071818      0.250933      0.181916
      8.25194      7.94043     10.00000        -0.112386     -0.003337      0.093324
      6.88702      8.72643     12.37712        -0.004149      0.000977     -0.003519
     12.36793      8.70808     12.43708         0.007814      0.001325      0.009615
     15.13758      8.70425     12.42061         0.001360     -0.000877      0.006045
      5.49990      6.38273     12.40564        -0.000782      0.002608     -0.004437
      5.50129      7.94043     10.00000         0.323781      0.015218      0.176863
      1.37532      0.79404     10.00000         0.075474     -0.262733      0.173739
     12.37143      4.00647     12.43628         0.003570     -0.013001      0.001971
     -0.00745     -0.00664     14.78249        -0.000647     -0.000368      0.001751
      6.87974      2.38232     14.86369         0.006621      0.002829      0.001104
     11.00258      4.76943     14.76795         0.007800     -0.002845      0.000608
     11.00258      7.94043     10.00000        -0.150029     -0.246633      0.213148
      9.63914      8.72047     12.41081        -0.000118      0.001522     -0.004814
     11.02357      6.35310     12.35122         0.005469      0.004037      0.005171
     12.37790      5.55830     10.00000        -0.197969      0.088526      0.181652
      9.64768      3.98711     12.42269         0.000906     -0.005649      0.000699
      5.50129      3.17617     10.00000         0.158558      0.090537      0.188598
     13.74624      6.36046     12.41353         0.002577      0.013011      0.007219
     12.37882      7.13580     14.74434         0.006031     -0.007442     -0.004598
    total drift:                                0.006982      0.005240     -0.067203

  FREE ENERGIE OF THE ION-ELECTRON SYSTEM (eV)
  free  energy   TOTEN  =      -192.59151130 eV

  energy  without entropy=     -192.35770392  energy(sigma->0) =     -192.47460761

 d Force = 0.1225051E-04[-0.634E-05, 0.308E-04]  d Energy = 0.1915352E-04-0.690E-05
 d Force =-0.8786170E+01[-0.879E+01,-0.879E+01]  d Ewald  =-0.8786170E+01-0.236E-08

 stress matrix after NEB project (eV)
      0.00000      0.00000      0.00000
      0.00000      0.00000      0.00000
      0.00000      0.00000      0.00000
  FORCES: max atom, RMS     0.017123    0.007568
  FORCE total and by dimension    0.052433    0.013011
  Stress total and by dimension    0.000000    0.000000

 reached required accuracy - stopping structural energy minimisation