 vasp.5.4.1 24Jun15 (build Mar 14 2019 10:18:33) complex

 executed on INTEL-19.0.2+OPENMPI date 2022.07.15  15:27:31

 INCAR:
 POTCAR:    PAW_PBE Au 04Oct2007
 POTCAR:    PAW_PBE Pd 04Jan2005
 POTCAR:    PAW_PBE Au 04Oct2007

 POTCAR:    PAW_PBE Pd 04Jan2005

 Optimization of the real space projectors (new method)

 maximal supplied QI-value         = 15.12
 optimisation between [QCUT,QGAM] = [ 10.13, 20.41] = [ 28.73,116.64] Ry
 Optimized for a Real-space Cutoff    1.51 Angstroem

   l    n(q)    QCUT    max X(q) W(low)/X(q) W(high)/X(q)  e(spline)
   2      8    10.129    60.898    0.46E-03    0.46E-03    0.14E-06
   2      8    10.129    58.894    0.47E-03    0.47E-03    0.14E-06
   0      9    10.129   109.617    0.16E-03    0.11E-03    0.54E-07
   0      9    10.129    75.026    0.15E-03    0.11E-03    0.52E-07
   1      9    10.129    16.344    0.96E-04    0.15E-03    0.14E-06
   1      9    10.129    10.160    0.81E-04    0.12E-03    0.11E-06
 Optimization of the real space projectors (new method)

 maximal supplied QI-value         = 14.36
 optimisation between [QCUT,QGAM] = [ 10.20, 20.39] = [ 29.12,116.47] Ry
 Optimized for a Real-space Cutoff    1.51 Angstroem

   l    n(q)    QCUT    max X(q) W(low)/X(q) W(high)/X(q)  e(spline)
   2      8    10.197    59.108    0.26E-03    0.14E-03    0.96E-07
   2      8    10.197    58.101    0.27E-03    0.14E-03    0.98E-07
   0      9    10.197   102.235    0.54E-04    0.60E-05    0.72E-07
   0      9    10.197    58.388    0.52E-04    0.60E-05    0.68E-07
   1      9    10.197    22.191    0.18E-03    0.25E-03    0.79E-07
   1      9    10.197    15.590    0.15E-03    0.21E-03    0.69E-07
  PAW_PBE Au 04Oct2007                  :
  PAW_PBE Pd 04Jan2005                  :

 POSCAR: Au Pd
  positions in cartesian coordinates
 exchange correlation table for  LEXCH =        8
   RHO(1)=    0.500       N(1)  =     2000
   RHO(2)=  100.500       N(2)  =     4000

 VTST: version 3.2, (02/03/18)

 CHAIN: initializing optimizer

 OPT: Using VASP Conjugate-Gradient optimizer
 CHAIN: Read ICHAIN            0

 POSCAR: Au Pd
  positions in cartesian coordinates

 ion  position               nearest neighbor table
   1  0.250  0.750  0.592-  38 2.75  47 2.75  18 2.75  39 2.75  43 2.75  32 2.75  25 2.75  14 2.75
                            40 2.75
   2  0.417  0.917  0.500-   7 2.75  25 2.75  43 2.75  27 2.75  37 2.75  12 2.75  47 2.75   6 2.75
                            38 2.75  44 2.75  36 2.75  11 2.75
   3  0.417  0.417  0.500-  13 2.75  35 2.75  39 2.75  37 2.75  26 2.75  40 2.75  47 2.75  42 2.75
                            29 2.75   9 2.75   4 2.75  32 2.75
   4  0.583  0.333  0.408-  29 2.75   9 2.75   5 2.75  31 2.75  34 2.75  13 2.75   8 2.75  26 2.75
                             3 2.75
   5  0.583  0.083  0.408-  26 2.75  11 2.75  13 2.75  23 2.75   4 2.75  31 2.75  44 2.75   6 2.75
                            37 2.75
   6  0.667  0.917  0.500-  11 2.75  48 2.75  36 2.75  26 2.75  37 2.75  45 2.75  27 2.75   2 2.75
                            16 2.75   5 2.75  23 2.75  28 2.75
   7  0.333  0.833  0.408-   2 2.75   9 2.75  33 2.75  34 2.75  44 2.75  17 2.75  11 2.75  47 2.75
                            38 2.75
   8  0.833  0.333  0.408-  24 2.75  30 2.75  31 2.75  33 2.75  34 2.75  21 2.75   4 2.75  15 2.75
                            29 2.75
   9  0.333  0.583  0.408-  47 2.75   7 2.75  13 2.75  17 2.75   4 2.75  34 2.75  22 2.75   3 2.75
                            40 2.75
  10  0.750  0.250  0.592-  29 2.75  15 2.75  20 2.75  28 2.75  18 2.75  32 2.75  35 2.75  46 2.75
                            26 2.75
  11  0.583  0.833  0.408-   6 2.75   5 2.75  30 2.75  34 2.75  44 2.75  23 2.75   7 2.75  27 2.75
                             2 2.75
  12  0.167  0.167  0.500-  33 2.75  43 2.75  46 2.75  38 2.75  42 2.75  24 2.75   2 2.75  15 2.75
                            37 2.75  21 2.75  44 2.75  41 2.75
  13  0.333  0.333  0.408-   3 2.75   5 2.75   9 2.75  22 2.75  44 2.75   4 2.75  21 2.75  37 2.75
                            42 2.75
  14  0.000  0.750  0.592-  16 2.75  40 2.75  19 2.75  28 2.75  39 2.75  18 2.75   1 2.75  48 2.75
                            45 2.75
  15  0.917  0.167  0.500-  31 2.75  18 2.75  10 2.75  24 2.75  29 2.75  16 2.75  38 2.75  26 2.75
                            12 2.75   8 2.75  33 2.75  46 2.75
  16  0.917  0.917  0.500-  23 2.75  14 2.75  28 2.75  26 2.75  15 2.75  40 2.75  45 2.75   6 2.75
                            38 2.75  31 2.75  18 2.75  17 2.75
  17  0.083  0.833  0.408-  38 2.75  22 2.75  31 2.75  33 2.75   9 2.75  23 2.75   7 2.75  40 2.75
                            16 2.75
  18  0.000  0.000  0.592-  15 2.75  38 2.75  14 2.75   1 2.75  10 2.75  46 2.75  43 2.75  28 2.75
                            16 2.75
  19  0.000  0.500  0.592-  45 2.75  42 2.75  14 2.75  41 2.75  46 2.75  48 2.75  39 2.75  20 2.75
                            24 2.75
  20  0.750  0.500  0.592-  27 2.75  24 2.75  25 2.75  10 2.75  46 2.75  48 2.75  19 2.75  32 2.75
                            29 2.75
  21  0.083  0.333  0.408-  42 2.75  30 2.75  33 2.75  22 2.75  44 2.75  13 2.75   8 2.75  12 2.75
                            24 2.75
  22  0.083  0.583  0.408-  40 2.75  17 2.75  21 2.75  23 2.75  13 2.75  30 2.75   9 2.75  42 2.75
                            45 2.75
  23  0.833  0.833  0.408-  16 2.75   5 2.75  22 2.75  30 2.75  31 2.75  17 2.75  11 2.75  45 2.75
                             6 2.75
  24  0.917  0.417  0.500-   8 2.75  46 2.75  20 2.75  12 2.75  27 2.75  45 2.75  15 2.75  29 2.75
                            42 2.75  30 2.75  19 2.75  21 2.75
  25  0.500  0.750  0.592-   2 2.75  27 2.75  20 2.75  32 2.75  36 2.75  43 2.75   1 2.75  48 2.75
                            47 2.75
  26  0.667  0.167  0.500-   5 2.75  28 2.75  35 2.75  16 2.75   3 2.75  29 2.75   6 2.75  15 2.75
                            37 2.75   4 2.75  10 2.75  31 2.75
  27  0.667  0.667  0.500-  34 2.75  20 2.75  25 2.75  24 2.75   6 2.75  29 2.75   2 2.75  45 2.75
                            47 2.75  11 2.75  30 2.75  48 2.75
  28  0.750  0.000  0.592-  26 2.75  16 2.75  10 2.75  14 2.75  35 2.75  48 2.75  36 2.75  18 2.75
                             6 2.75
  29  0.667  0.417  0.500-   4 2.75  10 2.75  32 2.75  26 2.75  27 2.75  15 2.75  47 2.75   3 2.75
                            24 2.75  34 2.75   8 2.75  20 2.75
  30  0.833  0.583  0.408-  45 2.75  11 2.75  21 2.75  23 2.75   8 2.75  34 2.75  22 2.75  24 2.75
                            27 2.75
  31  0.833  0.083  0.408-  15 2.75   8 2.75   4 2.75  17 2.75  23 2.75   5 2.75  33 2.75  16 2.75
                            26 2.75
  32  0.500  0.500  0.592-  47 2.75  29 2.75  25 2.75   1 2.75  35 2.75  10 2.75  39 2.75  20 2.75
                             3 2.75
  33  0.083  0.083  0.408-  12 2.75   8 2.75   7 2.75  17 2.75  21 2.75  31 2.75  44 2.75  38 2.75
                            15 2.75
  34  0.583  0.583  0.408-  27 2.75   7 2.75   8 2.75  11 2.75   4 2.75   9 2.75  30 2.75  29 2.75
                            47 2.75
  35  0.500  0.250  0.592-   3 2.75  26 2.75  28 2.75  32 2.75  36 2.75  39 2.75  10 2.75  41 2.75
                            37 2.75
  36  0.500  0.000  0.592-  37 2.75   6 2.75  35 2.75  25 2.75  41 2.75  48 2.75  43 2.75  28 2.75
                             2 2.75
  37  0.417  0.167  0.500-  44 2.75  36 2.75  41 2.75   2 2.75   3 2.75  42 2.75   6 2.75  12 2.75
                            26 2.75  13 2.75   5 2.75  35 2.75
  38  0.167  0.917  0.500-  17 2.75   1 2.75  18 2.75  12 2.75  15 2.75  40 2.75  47 2.75   2 2.75
                            16 2.75  33 2.75  43 2.75   7 2.75
  39  0.250  0.500  0.592-  40 2.75   3 2.75  14 2.75  35 2.75   1 2.75  41 2.75  32 2.75  19 2.75
                            42 2.75
  40  0.167  0.667  0.500-  22 2.75  39 2.75  14 2.75   3 2.75  38 2.75  16 2.75  42 2.75  45 2.75
                            47 2.75  17 2.75   9 2.75   1 2.75
  41  0.250  0.250  0.592-  42 2.75  37 2.75  19 2.75  39 2.75  36 2.75  43 2.75  35 2.75  46 2.75
                            12 2.75
  42  0.167  0.417  0.500-  21 2.75  41 2.75  19 2.75  37 2.75  40 2.75  12 2.75  45 2.75   3 2.75
                            24 2.75  22 2.75  39 2.75  13 2.75
  43  0.250  0.000  0.592-  12 2.75   2 2.75   1 2.75  25 2.75  41 2.75  46 2.75  18 2.75  36 2.75
                            38 2.75
  44  0.333  0.083  0.408-  37 2.75  11 2.75  13 2.75  21 2.75   7 2.75  33 2.75   5 2.75   2 2.75
                            12 2.75
  45  0.917  0.667  0.500-  30 2.75  19 2.75  48 2.75  24 2.75  16 2.75  42 2.75   6 2.75  27 2.75
                            40 2.75  23 2.75  22 2.75  14 2.75
  46  0.000  0.250  0.592-  24 2.75  12 2.75  19 2.75  20 2.75  18 2.75  43 2.75  41 2.75  10 2.75
                            15 2.75
  47  0.417  0.667  0.500-   9 2.75  32 2.75   1 2.75   2 2.75  29 2.75   3 2.75  38 2.75  27 2.75
                            40 2.75   7 2.75  25 2.75  34 2.75
  48  0.750  0.750  0.592-   6 2.75  45 2.75  20 2.75  28 2.75  36 2.75  19 2.75  25 2.75  14 2.75
                            27 2.75

  LATTYP: Found a hexagonal cell.
 ALAT       =    11.0025815153
 C/A-ratio  =     2.2260035120

  Lattice vectors:

 A1 = (   5.5012907576,  -9.5285150994,   0.0000000000)
 A2 = ( -11.0025815153,   0.0000000000,   0.0000000000)
 A3 = (   0.0000000000,   0.0000000000, -24.4917850943)

Analysis of symmetry for initial positions (statically):
 Subroutine PRICEL returns:
 Original cell was already a primitive cell.

 Routine SETGRP: Setting up the symmetry group for a
 hexagonal supercell.

 Subroutine GETGRP returns: Found  1 space group operations
 (whereof  1 operations were pure point group operations)
 out of a pool of 24 trial point group operations.

The static configuration has the point symmetry C_1 .

Analysis of symmetry for dynamics (positions and initial velocities):
 Subroutine PRICEL returns:
 Original cell was already a primitive cell.

 Routine SETGRP: Setting up the symmetry group for a
 hexagonal supercell.

 Subroutine GETGRP returns: Found  1 space group operations
 (whereof  1 operations were pure point group operations)
 out of a pool of 24 trial point group operations.

The dynamic configuration has the point symmetry C_1 .

 KPOINTS: Automatic mesh

Automatic generation of k-mesh.
Space group operators:
 irot       det(A)        alpha          n_x          n_y          n_z        tau_x        tau_y        tau_z
    1     1.000000     0.000000     1.000000     0.000000     0.000000     0.000000     0.000000     0.000000

 Subroutine IBZKPT returns following result:

 Found      6 irreducible k-points:

 Following reciprocal coordinates:
            Coordinates               Weight
  0.250000  0.250000  0.000000     16.000000
  0.000000  0.250000  0.000000     16.000000
 -0.250000  0.000000  0.000000     16.000000
 -0.250000  0.250000  0.000000     16.000000
  0.500000 -0.250000  0.000000     16.000000
 -0.250000  0.500000  0.000000     16.000000

 Following cartesian coordinates:
            Coordinates               Weight
  0.022722  0.013119  0.000000     16.000000
  0.000000  0.026237  0.000000     16.000000
[...]
 dipolmoment           0.000000      0.000000      0.002202 electrons x Angstroem
 Tr[quadrupol]    -10232.597210

 energy correction for charged system         0.000000 eV
 dipol+quadrupol energy correction           -0.000000 eV
 added-field ion interaction          0.001893 eV  (added to PSCEN)

  free energy =  -0.192635766120E+03  energy without entropy=  -0.192420256060E+03

 average (electrostatic) potential at core
  the test charge radii are     1.2098  1.1199
  (the norm of the test charge is              1.0000)
       1 -73.9313       2 -74.1095       3 -74.0540       4 -74.0197       5 -73.9571
       6 -74.1521       7 -73.9851       8 -73.9293       9 -73.9789      10 -73.9037
      11 -73.9529      12 -74.1629      13 -74.0570      14 -73.9434      15 -74.1889
      16 -74.1515      17 -74.1026      18 -73.8819      19 -73.8868      20 -73.8530
      21 -73.9764      22 -74.0742      23 -74.0258      24 -74.1320      25 -80.8326
      26 -80.9321      27 -80.9508      28 -80.8125      29 -80.9253      30 -80.7889
      31 -80.8027      32 -80.8595      33 -80.7989      34 -80.7995      35 -80.8753
      36 -80.8189      37 -80.9003      38 -80.8702      39 -80.8367      40 -80.9044
      41 -80.8180      42 -80.8849      43 -80.8200      44 -80.7463      45 -80.9113
      46 -80.8295      47 -80.9264      48 -80.8172

 E-fermi :  -1.0870     XC(G=0):  -4.5446     alpha+bet : -4.5211

[...]

 k-point     6 :      -0.2500    0.5000    0.0000
  band No.  band energies     occupation
      1      -8.4682      2.00000
      2      -8.1071      2.00000
      3      -7.9222      2.00000
      4      -7.5237      2.00000
      5      -7.1838      2.00000
      6      -7.1630      2.00000
      7      -6.9876      2.00000
      8      -6.9289      2.00000
      9      -6.9039      2.00000
     10      -6.8008      2.00000
     11      -6.7478      2.00000
     12      -6.7073      2.00000
     13      -6.6508      2.00000
     14      -6.6049      2.00000
     15      -6.5394      2.00000
     16      -6.5236      2.00000
     17      -6.4912      2.00000
     18      -6.4709      2.00000
     19      -6.3966      2.00000
     20      -6.3907      2.00000
     21      -6.3450      2.00000
     22      -6.3286      2.00000
     23      -6.3136      2.00000
     24      -6.2799      2.00000
     25      -6.2507      2.00000
     26      -6.2225      2.00000
     27      -6.1965      2.00000
     28      -6.1723      2.00000
     29      -6.1425      2.00000
     30      -6.0973      2.00000
     31      -6.0863      2.00000
     32      -6.0704      2.00000
     33      -6.0542      2.00000
     34      -6.0276      2.00000
     35      -6.0216      2.00000
     36      -5.9962      2.00000
     37      -5.9613      2.00000
     38      -5.9477      2.00000
     39      -5.9160      2.00000
     40      -5.9058      2.00000
     41      -5.8815      2.00000
     42      -5.8661      2.00000
     43      -5.8447      2.00000
     44      -5.8365      2.00000
     45      -5.7869      2.00000
     46      -5.7692      2.00000
     47      -5.7381      2.00000
     48      -5.6690      2.00000
     49      -5.6411      2.00000
     50      -5.5950      2.00000
     51      -5.5464      2.00000
     52      -5.5331      2.00000
     53      -5.5163      2.00000
     54      -5.5016      2.00000
     55      -5.4646      2.00000
     56      -5.4355      2.00000
     57      -5.4271      2.00000
     58      -5.3871      2.00000
     59      -5.3510      2.00000
     60      -5.3365      2.00000
[...]
    292       4.2057      0.00000
    293       4.4844      0.00000
    294       4.5500      0.00000
    295       4.6168      0.00000
    296       4.6204      0.00000
    297       4.6429      0.00000
    298       4.7798      0.00000
    299       4.8500      0.00000
    300       4.9101      0.00000
    301       4.9780      0.00000
    302       5.0497      0.00000
    303       5.0702      0.00000
    304       5.0850      0.00000
    305       5.2378      0.00000
    306       5.2639      0.00000

 soft charge-density along one line, spin component           1
         0         1         2         3         4         5         6         7         8         9
 total charge-density along one line

------------------------ aborting loop because EDIFF is reached ----------------------------------------

 VOLUME and BASIS-vectors are now :
  energy-cutoff  :      400.00
  volume of cell :     2567.68
      direct lattice vectors                 reciprocal lattice vectors
    11.002581515  0.000000000  0.000000000     0.090887761 -0.052474073  0.000000000
     5.501290758  9.528515099  0.000000000     0.000000000  0.104948147  0.000000000
     0.000000000  0.000000000 24.491785094     0.000000000  0.000000000  0.040830017

  length of vectors
    11.002581515 11.002581515 24.491785094     0.104948147  0.104948147  0.040830017

 FORCES acting on ions
    electron-ion (+dipol)            ewald-force                    non-local-force                 convergence-correction
   -.116E+02 0.125E+02 -.225E+04   0.126E+02 -.129E+02 0.225E+04   -.927E+00 0.396E+00 0.806E+00   -.407E-02 -.346E-02 0.795E-03
   -.132E+01 0.548E+01 -.144E+02   0.112E+01 -.576E+01 0.154E+02   0.190E+00 0.280E+00 -.103E+01   0.387E-02 0.187E-02 -.117E-02
   -.853E-01 -.118E+01 -.305E+01   0.339E-01 0.113E+01 0.463E+01   0.579E-01 0.613E-01 -.159E+01   -.215E-02 -.496E-02 0.333E-02
   -.150E+02 -.157E+01 0.222E+04   0.158E+02 0.141E+01 -.222E+04   -.749E+00 0.173E+00 -.215E+00   -.103E-02 -.155E-02 0.222E-02
   -.713E+01 0.330E+01 0.224E+04   0.708E+01 -.313E+01 -.224E+04   0.553E-01 -.173E+00 -.136E+00   0.616E-03 0.792E-03 0.484E-02
   -.211E+01 0.139E+01 -.152E+02   0.214E+01 -.139E+01 0.169E+02   -.335E-01 0.991E-03 -.174E+01   0.229E-02 0.260E-02 0.157E-02
   0.460E+01 -.414E+01 0.222E+04   -.440E+01 0.441E+01 -.222E+04   -.194E+00 -.263E+00 -.202E+00   -.103E-03 0.592E-03 -.132E-02
   0.833E+00 0.607E+00 0.225E+04   -.110E+01 -.261E+00 -.225E+04   0.264E+00 -.342E+00 0.145E+00   -.286E-03 -.596E-03 -.547E-02
   -.415E+01 -.772E+01 0.223E+04   0.477E+01 0.776E+01 -.223E+04   -.635E+00 -.506E-01 -.162E+00   -.111E-02 -.132E-02 -.291E-03
   0.171E+02 -.651E+01 -.227E+04   -.177E+02 0.661E+01 0.227E+04   0.666E+00 -.104E+00 0.284E+00   -.614E-02 -.186E-02 -.946E-03
   0.247E+01 0.128E+02 0.226E+04   -.275E+01 -.135E+02 -.226E+04   0.273E+00 0.686E+00 0.399E-01   0.155E-02 0.148E-02 -.348E-05
   0.169E+01 -.677E+01 -.195E+02   -.118E+01 0.660E+01 0.200E+02   -.506E+00 0.166E+00 -.497E+00   0.178E-02 0.268E-02 -.254E-02
   0.339E+01 -.222E+01 0.224E+04   -.384E+01 0.148E+01 -.223E+04   0.445E+00 0.741E+00 -.204E+00   0.124E-03 -.336E-03 0.510E-02
   0.240E+01 0.731E+01 -.227E+04   -.311E+01 -.756E+01 0.227E+04   0.723E+00 0.243E+00 0.463E+00   -.203E-02 0.450E-03 -.992E-03
   0.589E+01 -.385E+01 -.585E+02   -.620E+01 0.368E+01 0.579E+02   0.302E+00 0.166E+00 0.593E+00   -.389E-02 0.779E-04 -.168E-02
   -.564E+01 0.837E+01 -.653E+02   0.564E+01 -.839E+01 0.652E+02   -.288E-03 0.274E-01 0.805E-01   -.352E-02 0.661E-03 0.135E-05
   -.443E+00 -.107E+02 0.218E+04   0.719E+00 0.117E+02 -.218E+04   -.276E+00 -.919E+00 -.454E+00   -.142E-02 0.379E-03 -.133E-02
   -.530E+01 -.156E+01 -.233E+04   0.579E+01 0.197E+01 0.233E+04   -.493E+00 -.414E+00 -.996E-01   -.604E-02 -.987E-03 0.494E-03
   -.878E+01 0.789E+01 -.227E+04   0.937E+01 -.827E+01 0.227E+04   -.591E+00 0.381E+00 0.197E+00   0.159E-02 0.321E-02 -.483E-03
   0.591E+01 -.810E+01 -.230E+04   -.640E+01 0.871E+01 0.230E+04   0.494E+00 -.613E+00 0.224E+00   0.154E-03 -.120E-03 0.119E-02
   0.113E+02 0.289E+00 0.227E+04   -.113E+02 -.754E+00 -.227E+04   0.462E-01 0.464E+00 0.699E-01   0.147E-02 0.952E-03 -.477E-03
   0.560E+01 -.629E+01 0.217E+04   -.624E+01 0.627E+01 -.217E+04   0.645E+00 0.114E-01 -.554E+00   -.282E-03 -.538E-03 0.223E-02
   -.666E+01 0.336E+01 0.224E+04   0.648E+01 -.358E+01 -.224E+04   0.179E+00 0.229E+00 0.268E+00   0.475E-03 0.875E-03 -.130E-02
   0.145E+01 0.496E-01 -.455E+02   -.148E+01 0.101E+01 0.455E+02   0.265E-01 -.106E+01 0.630E-01   0.177E-02 0.670E-03 -.143E-02
   -.179E+01 -.590E+01 -.201E+04   0.201E+01 0.592E+01 0.200E+04   -.231E+00 -.198E-01 0.188E+01   0.301E-02 -.939E-03 0.150E-02
   -.504E+00 -.260E+01 -.228E+02   0.317E+00 0.272E+01 0.233E+02   0.196E+00 -.119E+00 -.424E+00   -.324E-02 -.229E-03 0.270E-02
   -.317E+01 0.978E+00 -.392E+02   0.299E+01 -.130E+01 0.392E+02   0.190E+00 0.321E+00 -.401E-03   0.270E-02 0.109E-02 0.817E-03
   0.210E+02 -.585E+01 -.202E+04   -.215E+02 0.608E+01 0.202E+04   0.516E+00 -.229E+00 0.151E+01   -.171E-02 0.142E-02 -.541E-03
   -.503E+01 0.787E+01 -.419E+02   0.467E+01 -.717E+01 0.419E+02   0.372E+00 -.705E+00 0.209E-02   -.181E-02 -.384E-02 0.921E-03
   0.685E+01 -.147E+01 0.193E+04   -.719E+01 0.163E+01 -.193E+04   0.331E+00 -.168E+00 -.169E+01   0.276E-02 0.471E-03 -.399E-03
   -.969E+01 0.850E+00 0.194E+04   0.973E+01 -.696E+00 -.194E+04   -.311E-01 -.159E+00 -.147E+01   -.165E-02 -.310E-03 0.866E-03
   0.888E+01 -.433E+00 -.199E+04   -.894E+01 0.573E+00 0.199E+04   0.653E-01 -.134E+00 0.173E+01   -.361E-02 -.493E-02 0.135E-02
   0.737E+01 0.353E+01 0.195E+04   -.727E+01 -.376E+01 -.195E+04   -.101E+00 0.227E+00 -.127E+01   -.764E-03 -.416E-04 -.831E-03
   -.838E+01 0.222E+01 0.192E+04   0.875E+01 -.219E+01 -.192E+04   -.358E+00 -.311E-01 -.171E+01   -.106E-02 -.335E-03 -.155E-02
   0.121E+02 0.152E+01 -.199E+04   -.123E+02 -.188E+01 0.199E+04   0.244E+00 0.356E+00 0.197E+01   0.244E-02 -.296E-03 -.723E-03
   0.318E+01 -.864E+01 -.202E+04   -.312E+01 0.887E+01 0.202E+04   -.695E-01 -.223E+00 0.163E+01   0.711E-02 0.154E-02 -.606E-04
   -.525E+01 -.146E+01 0.121E+02   0.524E+01 0.171E+01 -.114E+02   -.557E-02 -.256E+00 -.750E+00   0.460E-02 0.160E-02 0.106E-02
   0.743E+01 0.682E+01 -.600E+02   -.727E+01 -.706E+01 0.599E+02   -.161E+00 0.242E+00 0.504E-01   -.234E-02 0.482E-03 -.126E-02
   -.524E+01 0.131E+02 -.199E+04   0.531E+01 -.136E+02 0.199E+04   -.674E-01 0.414E+00 0.184E+01   0.194E-02 -.186E-02 -.369E-03
   0.110E+01 -.510E+01 -.329E+02   -.111E+01 0.483E+01 0.334E+02   0.204E-01 0.271E+00 -.441E+00   -.386E-02 -.247E-02 0.812E-03
   -.159E+02 0.569E+01 -.200E+04   0.161E+02 -.579E+01 0.200E+04   -.181E+00 0.103E+00 0.177E+01   0.498E-02 0.257E-02 -.357E-03
   0.323E+01 -.345E+01 -.723E+01   -.284E+01 0.363E+01 0.809E+01   -.390E+00 -.194E+00 -.864E+00   0.171E-02 0.122E-02 -.330E-03
   -.182E+02 -.204E+01 -.202E+04   0.183E+02 0.218E+01 0.202E+04   -.136E+00 -.143E+00 0.150E+01   -.124E-03 0.514E-03 0.482E-03
   0.929E+01 0.457E+01 0.198E+04   -.939E+01 -.439E+01 -.198E+04   0.913E-01 -.191E+00 -.145E+01   0.169E-02 0.140E-02 0.331E-03
   -.486E+01 -.603E+00 -.423E+02   0.465E+01 0.301E+00 0.423E+02   0.202E+00 0.300E+00 0.488E-01   0.215E-02 0.216E-03 0.939E-03
   -.129E+02 0.454E+00 -.202E+04   0.134E+02 -.763E+00 0.202E+04   -.473E+00 0.313E+00 0.147E+01   -.139E-02 0.128E-02 -.151E-04
   0.595E+01 -.194E+01 -.190E+02   -.559E+01 0.172E+01 0.194E+02   -.366E+00 0.222E+00 -.453E+00   -.101E-02 -.144E-02 -.317E-03
   0.104E+02 -.110E+02 -.200E+04   -.107E+02 0.112E+02 0.200E+04   0.316E+00 -.196E+00 0.171E+01   0.303E-02 0.265E-02 0.599E-03
   0.569E-01 -.109E+00 -.287E+01   -.231E-12 -.906E-13 -.682E-12   -.668E-01 0.880E-01 0.295E+01   -.826E-03 0.132E-02 0.795E-02

 POSITION                                       TOTAL-FORCE (eV/Angst)
      6.90798      7.13302     14.72245        -0.001281      0.001635     -0.000975
      9.62314      8.72659     12.24872        -0.001068      0.002840     -0.000042
      6.87572      3.97849     12.24054         0.004636      0.005557     -0.001161
      8.27291      3.16487      9.75112        -0.001790      0.003723     -0.008241
      6.87536      0.78294      9.70874         0.003611     -0.008129     -0.003550
     12.37578      8.73868     12.26303        -0.001214     -0.001204      0.001811
      8.25375      7.94866      9.76229         0.002891      0.006150     -0.010474
     10.99854      3.17577      9.73084        -0.004402      0.003811      0.010875
      6.89447      5.56021      9.73024        -0.007251     -0.007775     -0.001527
      9.59962      2.38493     14.77430         0.004391      0.000781      0.000973
     10.99262      7.90650      9.69683        -0.000633     -0.000249     -0.002861
      2.76946      1.59852     12.25072         0.008970      0.000516      0.000266
      5.48914      3.15365      9.71732         0.002953      0.003986     -0.009577
      4.11631      7.13663     14.77688         0.008915     -0.001187      0.002516
     10.99175      1.59742     12.28609        -0.007544     -0.003119     -0.001473
     15.12813      8.73466     12.29782         0.002468      0.003198      0.003828
      5.50600      7.96222      9.80701        -0.001624      0.007346     -0.011680
      0.01843      0.00819     14.87130        -0.004890      0.000199     -0.005183
      2.77286      4.74504     14.76416         0.004077      0.007516      0.005512
     10.98720      4.79026     14.79818        -0.001210     -0.001670     -0.000163
      2.73725      3.15439      9.69439        -0.000546      0.001557     -0.004668
      4.10930      5.55403      9.81233         0.005038     -0.005609     -0.009439
     13.74594      7.92820      9.71693        -0.000929      0.009479      0.004961
     12.37643      4.00569     12.27886         0.000977      0.007618      0.001727
      9.63816      7.16525     14.62683        -0.008532     -0.001005      0.000221
      8.24449      1.61049     12.25648         0.006148     -0.000003      0.002294
     10.98830      6.34900     12.27614         0.004944     -0.003419     -0.000807
      8.22763      0.00809     14.66149         0.003900      0.001914      0.000157
      9.62092      3.99721     12.27765         0.003168     -0.001171      0.002803
     12.36556      5.54726      9.90044        -0.008603     -0.007768      0.002534
      9.63220      0.79167      9.89559        -0.000859     -0.005115      0.004885
      8.24365      4.76072     14.61718         0.002054      0.001267     -0.003466
      1.37307      0.79086      9.89191         0.000791     -0.003553      0.003803
      9.63487      5.55300      9.91716         0.008318     -0.005794      0.002453
      6.85292      2.37001     14.59862        -0.003505     -0.001565      0.004216
      5.50794      0.00501     14.62868        -0.000723      0.007343      0.003617
      5.51136      1.60380     12.21024        -0.007064      0.001707      0.006131
      6.87443      8.72050     12.29753        -0.001071     -0.003497     -0.003245
      5.51656      4.73382     14.60573        -0.002491      0.003843      0.002051
      5.50171      6.35327     12.26941         0.003339     -0.005059     -0.000558
      4.13926      2.36769     14.60699         0.005508      0.000713      0.000860
      4.13160      3.98603     12.23667         0.000591     -0.005310     -0.002033
      2.77680      0.01513     14.65022         0.005265     -0.001700     -0.002297
      4.11691      0.78482      9.83235        -0.005713     -0.006133      0.012870
     13.76207      6.35210     12.28014        -0.010947     -0.001697      0.005244
      1.39387      2.37428     14.67499        -0.006660      0.005990     -0.004602
      8.24175      6.35853     12.25364        -0.005703     -0.006321      0.001219
     12.37107      7.15923     14.63570         0.003300     -0.000637      0.000194
    total drift:                               -0.010742     -0.020020      0.093003

  FREE ENERGIE OF THE ION-ELECTRON SYSTEM (eV)
  free  energy   TOTEN  =      -192.63576612 eV

  energy  without entropy=     -192.42025606  energy(sigma->0) =     -192.52801109

 d Force = 0.3305005E-03[-0.541E-05, 0.666E-03]  d Energy = 0.3767865E-03-0.463E-04
 d Force = 0.4765504E+01[ 0.480E+01, 0.473E+01]  d Ewald  = 0.4765504E+01-0.145E-06

 stress matrix after NEB project (eV)
      0.00000      0.00000      0.00000
      0.00000      0.00000      0.00000
      0.00000      0.00000      0.00000
  FORCES: max atom, RMS     0.015359    0.008260
  FORCE total and by dimension    0.057226    0.012870
  Stress total and by dimension    0.000000    0.000000
 Conjugate gradient step on ions:
 trial-energy change:   -0.000377  1 .order   -0.000331   -0.000666    0.000005
  (g-gl).g = 0.162E-03      g.g   = 0.191E-03  gl.gl    = 0.342E-03
 g(Force)  = 0.191E-03   g(Stress)= 0.000E+00 ortho     =-0.755E-05
 gamma     =   0.47528
 trial     =   3.55973
 opt step  =   3.53941  (harmonic =   3.53106) maximal distance =0.00745810
 next E    =  -192.635766   (d E  =  -0.00038)

 reached required accuracy - stopping structural energy minimisation