 vasp.5.4.1 24Jun15 (build Mar 14 2019 10:18:33) complex

 executed on INTEL-19.0.2+OPENMPI date 2022.07.15  15:43:49

 INCAR:
 POTCAR:    PAW_PBE Au 04Oct2007
 POTCAR:    PAW_PBE Pd 04Jan2005
 POTCAR:    PAW_PBE Au 04Oct2007

 POTCAR:    PAW_PBE Pd 04Jan2005

 Optimization of the real space projectors (new method)

 maximal supplied QI-value         = 15.12
 optimisation between [QCUT,QGAM] = [ 10.13, 20.41] = [ 28.73,116.64] Ry
 Optimized for a Real-space Cutoff    1.51 Angstroem

   l    n(q)    QCUT    max X(q) W(low)/X(q) W(high)/X(q)  e(spline)
   2      8    10.129    60.898    0.46E-03    0.46E-03    0.14E-06
   2      8    10.129    58.894    0.47E-03    0.47E-03    0.14E-06
   0      9    10.129   109.617    0.16E-03    0.11E-03    0.54E-07
   0      9    10.129    75.026    0.15E-03    0.11E-03    0.52E-07
   1      9    10.129    16.344    0.96E-04    0.15E-03    0.14E-06
   1      9    10.129    10.160    0.81E-04    0.12E-03    0.11E-06
 Optimization of the real space projectors (new method)

 maximal supplied QI-value         = 14.36
 optimisation between [QCUT,QGAM] = [ 10.20, 20.39] = [ 29.12,116.47] Ry
 Optimized for a Real-space Cutoff    1.51 Angstroem

   l    n(q)    QCUT    max X(q) W(low)/X(q) W(high)/X(q)  e(spline)
   2      8    10.197    59.108    0.26E-03    0.14E-03    0.96E-07
   2      8    10.197    58.101    0.27E-03    0.14E-03    0.98E-07
   0      9    10.197   102.235    0.54E-04    0.60E-05    0.72E-07
   0      9    10.197    58.388    0.52E-04    0.60E-05    0.68E-07
   1      9    10.197    22.191    0.18E-03    0.25E-03    0.79E-07
   1      9    10.197    15.590    0.15E-03    0.21E-03    0.69E-07
  PAW_PBE Au 04Oct2007                  :
  PAW_PBE Pd 04Jan2005                  :

 POSCAR: Au Pd
  positions in cartesian coordinates
 exchange correlation table for  LEXCH =        8
   RHO(1)=    0.500       N(1)  =     2000
   RHO(2)=  100.500       N(2)  =     4000

 VTST: version 3.2, (02/03/18)

 CHAIN: initializing optimizer

 OPT: Using VASP Conjugate-Gradient optimizer
 CHAIN: Read ICHAIN            0

 POSCAR: Au Pd
  positions in cartesian coordinates

 ion  position               nearest neighbor table
   1  0.083  0.083  0.408-  21 2.75  20 2.75  14 2.75  28 2.75  38 2.75  31 2.75  43 2.75  13 2.75
                            24 2.75
   2  0.667  0.667  0.500-  36 2.75  27 2.75  32 2.75  18 2.75  33 2.75   6 2.75  42 2.75   8 2.75
                            17 2.75   7 2.75  16 2.75   3 2.75
   3  0.833  0.583  0.408-  17 2.75   7 2.75  20 2.75  28 2.75  30 2.75  22 2.75  36 2.75  18 2.75
                             2 2.75
   4  0.750  0.250  0.592-  33 2.75  24 2.75  27 2.75  29 2.75  25 2.75  47 2.75   9 2.75  26 2.75
                             5 2.75
   5  0.667  0.167  0.500-  12 2.75  29 2.75   9 2.75  19 2.75  10 2.75  33 2.75  42 2.75  24 2.75
                            11 2.75  39 2.75  31 2.75   4 2.75
   6  0.417  0.917  0.500-  14 2.75  32 2.75  23 2.75   2 2.75  21 2.75   8 2.75  11 2.75  13 2.75
                            42 2.75  43 2.75   7 2.75  40 2.75
   7  0.583  0.833  0.408-  42 2.75  12 2.75  36 2.75   3 2.75  43 2.75  30 2.75  14 2.75   2 2.75
                             6 2.75
   8  0.417  0.667  0.500-  45 2.75  47 2.75  48 2.75  33 2.75   6 2.75  10 2.75  13 2.75   2 2.75
                            15 2.75  14 2.75  36 2.75  32 2.75
   9  0.500  0.250  0.592-  10 2.75   5 2.75  29 2.75  40 2.75  44 2.75  47 2.75  46 2.75   4 2.75
                            11 2.75
  10  0.417  0.417  0.500-  35 2.75   9 2.75  44 2.75  11 2.75  15 2.75   8 2.75   5 2.75  33 2.75
                            34 2.75  45 2.75  39 2.75  47 2.75
  11  0.417  0.167  0.500-  43 2.75  40 2.75  46 2.75   6 2.75  42 2.75  10 2.75  34 2.75  21 2.75
                             5 2.75  35 2.75  12 2.75   9 2.75
  12  0.583  0.083  0.408-   5 2.75   7 2.75  30 2.75  35 2.75  39 2.75  31 2.75  43 2.75  42 2.75
                            11 2.75
  13  0.167  0.917  0.500-  38 2.75  48 2.75  25 2.75  24 2.75   8 2.75  15 2.75  21 2.75  19 2.75
                             6 2.75   1 2.75  14 2.75  23 2.75
  14  0.333  0.833  0.408-   6 2.75   1 2.75  36 2.75  43 2.75  45 2.75   7 2.75  38 2.75   8 2.75
                            13 2.75
  15  0.167  0.667  0.500-  22 2.75  44 2.75  41 2.75  10 2.75  34 2.75  13 2.75  19 2.75  17 2.75
                             8 2.75  38 2.75  45 2.75  48 2.75
  16  0.750  0.750  0.592-  42 2.75  17 2.75  29 2.75  37 2.75  40 2.75  27 2.75  41 2.75  32 2.75
                             2 2.75
  17  0.917  0.667  0.500-   3 2.75  37 2.75  16 2.75  19 2.75  34 2.75  18 2.75  42 2.75   2 2.75
                            15 2.75  30 2.75  41 2.75  22 2.75
  18  0.917  0.417  0.500-  28 2.75  26 2.75  27 2.75  24 2.75   2 2.75  17 2.75  21 2.75  33 2.75
                            34 2.75   3 2.75  20 2.75  37 2.75
  19  0.917  0.917  0.500-  30 2.75  41 2.75  29 2.75  24 2.75   5 2.75  15 2.75  17 2.75  13 2.75
                            42 2.75  31 2.75  25 2.75  38 2.75
  20  0.083  0.333  0.408-  34 2.75   3 2.75  22 2.75   1 2.75  43 2.75  35 2.75  28 2.75  21 2.75
                            18 2.75
  21  0.167  0.167  0.500-   1 2.75  23 2.75  26 2.75  18 2.75   6 2.75  13 2.75  34 2.75  11 2.75
                            24 2.75  20 2.75  43 2.75  46 2.75
  22  0.083  0.583  0.408-  15 2.75  20 2.75  30 2.75  35 2.75  38 2.75   3 2.75  45 2.75  34 2.75
                            17 2.75
  23  0.250  0.000  0.592-  21 2.75   6 2.75  26 2.75  32 2.75  46 2.75  48 2.75  25 2.75  40 2.75
                            13 2.75
  24  0.917  0.167  0.500-  31 2.75  25 2.75   4 2.75  19 2.75  13 2.75  18 2.75  33 2.75  21 2.75
                             5 2.75  28 2.75  26 2.75   1 2.75
  25  0.000  0.000  0.592-  24 2.75  13 2.75   4 2.75  26 2.75  41 2.75  48 2.75  23 2.75  29 2.75
                            19 2.75
  26  0.000  0.250  0.592-  18 2.75  21 2.75  23 2.75  25 2.75  27 2.75  37 2.75   4 2.75  46 2.75
                            24 2.75
  27  0.750  0.500  0.592-   2 2.75  18 2.75  16 2.75   4 2.75  26 2.75  32 2.75  37 2.75  47 2.75
                            33 2.75
  28  0.833  0.333  0.408-  18 2.75   3 2.75   1 2.75  31 2.75  36 2.75  20 2.75  39 2.75  24 2.75
                            33 2.75
  29  0.750  0.000  0.592-   5 2.75  19 2.75   9 2.75  16 2.75   4 2.75  41 2.75  40 2.75  25 2.75
                            42 2.75
  30  0.833  0.833  0.408-  19 2.75  12 2.75   3 2.75  22 2.75  31 2.75   7 2.75  38 2.75  17 2.75
                            42 2.75
  31  0.833  0.083  0.408-  24 2.75  28 2.75  30 2.75  38 2.75  39 2.75  12 2.75   1 2.75  19 2.75
                             5 2.75
  32  0.500  0.750  0.592-   6 2.75   2 2.75  23 2.75  27 2.75  40 2.75  47 2.75  16 2.75  48 2.75
                             8 2.75
  33  0.667  0.417  0.500-  39 2.75   4 2.75  47 2.75   8 2.75  24 2.75   2 2.75   5 2.75  18 2.75
                            10 2.75  36 2.75  28 2.75  27 2.75
  34  0.167  0.417  0.500-  20 2.75  46 2.75  37 2.75  11 2.75  21 2.75  15 2.75  17 2.75  10 2.75
                            18 2.75  22 2.75  44 2.75  35 2.75
  35  0.333  0.333  0.408-  10 2.75  12 2.75  22 2.75  43 2.75  45 2.75  20 2.75  39 2.75  11 2.75
                            34 2.75
  36  0.583  0.583  0.408-   2 2.75   7 2.75  14 2.75  28 2.75  39 2.75   3 2.75  45 2.75  33 2.75
                             8 2.75
  37  0.000  0.500  0.592-  17 2.75  34 2.75  26 2.75  16 2.75  41 2.75  46 2.75  44 2.75  27 2.75
                            18 2.75
  38  0.083  0.833  0.408-  13 2.75   1 2.75  22 2.75  31 2.75  45 2.75  14 2.75  30 2.75  15 2.75
                            19 2.75
  39  0.583  0.333  0.408-  33 2.75  31 2.75  12 2.75  36 2.75  45 2.75  28 2.75  35 2.75   5 2.75
                            10 2.75
  40  0.500  0.000  0.592-  11 2.75  42 2.75  16 2.75  32 2.75   9 2.75  46 2.75  29 2.75  23 2.75
                             6 2.75
  41  0.000  0.750  0.592-  19 2.75  15 2.75  25 2.75  29 2.75  37 2.75  44 2.75  16 2.75  48 2.75
                            17 2.75
  42  0.667  0.917  0.500-   7 2.75  16 2.75  40 2.75  11 2.75   5 2.75  17 2.75   2 2.75  19 2.75
                             6 2.75  12 2.75  30 2.75  29 2.75
  43  0.333  0.083  0.408-  11 2.75   7 2.75  14 2.75  20 2.75  35 2.75  12 2.75   1 2.75   6 2.75
                            21 2.75
  44  0.250  0.500  0.592-  15 2.75  10 2.75   9 2.75  41 2.75  46 2.75  48 2.75  47 2.75  37 2.75
                            34 2.75
  45  0.333  0.583  0.408-   8 2.75  14 2.75  35 2.75  38 2.75  39 2.75  22 2.75  36 2.75  10 2.75
                            15 2.75
  46  0.250  0.250  0.592-  34 2.75  11 2.75  23 2.75  37 2.75  40 2.75  44 2.75   9 2.75  26 2.75
                            21 2.75
  47  0.500  0.500  0.592-   8 2.75  33 2.75   9 2.75  32 2.75   4 2.75  48 2.75  44 2.75  27 2.75
                            10 2.75
  48  0.250  0.750  0.592-  13 2.75   8 2.75  23 2.75  25 2.75  44 2.75  47 2.75  32 2.75  41 2.75
                            15 2.75

  LATTYP: Found a hexagonal cell.
 ALAT       =    11.0025815153
 C/A-ratio  =     2.2260035120

  Lattice vectors:

 A1 = (   5.5012907576,  -9.5285150994,   0.0000000000)
 A2 = ( -11.0025815153,   0.0000000000,   0.0000000000)
 A3 = (   0.0000000000,   0.0000000000, -24.4917850943)

Analysis of symmetry for initial positions (statically):
 Subroutine PRICEL returns:
 Original cell was already a primitive cell.

 Routine SETGRP: Setting up the symmetry group for a
 hexagonal supercell.

 Subroutine GETGRP returns: Found  1 space group operations
 (whereof  1 operations were pure point group operations)
 out of a pool of 24 trial point group operations.

The static configuration has the point symmetry C_1 .

Analysis of symmetry for dynamics (positions and initial velocities):
 Subroutine PRICEL returns:
 Original cell was already a primitive cell.

 Routine SETGRP: Setting up the symmetry group for a
 hexagonal supercell.

 Subroutine GETGRP returns: Found  1 space group operations
 (whereof  1 operations were pure point group operations)
 out of a pool of 24 trial point group operations.

The dynamic configuration has the point symmetry C_1 .

 KPOINTS: Automatic mesh

Automatic generation of k-mesh.
Space group operators:
 irot       det(A)        alpha          n_x          n_y          n_z        tau_x        tau_y        tau_z
    1     1.000000     0.000000     1.000000     0.000000     0.000000     0.000000     0.000000     0.000000

 Subroutine IBZKPT returns following result:

 Found      6 irreducible k-points:

 Following reciprocal coordinates:
            Coordinates               Weight
  0.250000  0.250000  0.000000     16.000000
  0.000000  0.250000  0.000000     16.000000
 -0.250000  0.000000  0.000000     16.000000
 -0.250000  0.250000  0.000000     16.000000
  0.500000 -0.250000  0.000000     16.000000
 -0.250000  0.500000  0.000000     16.000000

 Following cartesian coordinates:
            Coordinates               Weight
  0.022722  0.013119  0.000000     16.000000
  0.000000  0.026237  0.000000     16.000000
[...]
 dipolmoment           0.000000      0.000000     -0.004886 electrons x Angstroem
 Tr[quadrupol]    -10217.164695

 energy correction for charged system         0.000000 eV
 dipol+quadrupol energy correction           -0.000001 eV
 added-field ion interaction         -0.002580 eV  (added to PSCEN)

  free energy =  -0.190817648900E+03  energy without entropy=  -0.190647694331E+03

 average (electrostatic) potential at core
  the test charge radii are     1.2098  1.1199
  (the norm of the test charge is              1.0000)
       1 -73.9551       2 -74.2260       3 -73.9175       4 -73.8562       5 -74.2029
       6 -74.2863       7 -73.9813       8 -74.2564       9 -73.8491      10 -74.1989
      11 -74.2313      12 -73.8855      13 -74.2691      14 -73.9270      15 -74.2329
      16 -73.8846      17 -74.2296      18 -74.2178      19 -74.2565      20 -73.9379
      21 -74.2693      22 -73.9086      23 -73.8630      24 -74.2713      25 -80.8349
      26 -80.8380      27 -80.8179      28 -80.8301      29 -80.8434      30 -80.8413
      31 -80.7932      32 -80.8450      33 -80.8427      34 -80.7966      35 -80.8132
      36 -80.8236      37 -80.8609      38 -80.8244      39 -80.8309      40 -80.8445
      41 -80.8040      42 -80.8131      43 -80.8521      44 -80.8234      45 -80.7630
      46 -80.8500      47 -80.8030      48 -80.8562

 E-fermi :  -1.1047     XC(G=0):  -4.5532     alpha+bet : -4.5211

[...]

 k-point     6 :      -0.2500    0.5000    0.0000
  band No.  band energies     occupation
      1      -8.8965      2.00000
      2      -8.4238      2.00000
      3      -8.3048      2.00000
      4      -7.4091      2.00000
      5      -7.3609      2.00000
      6      -7.3001      2.00000
      7      -7.2678      2.00000
      8      -7.1751      2.00000
      9      -7.0463      2.00000
     10      -7.0316      2.00000
     11      -6.9691      2.00000
     12      -6.8935      2.00000
     13      -6.8411      2.00000
     14      -6.8019      2.00000
     15      -6.7165      2.00000
     16      -6.6690      2.00000
     17      -6.6120      2.00000
     18      -6.5644      2.00000
     19      -6.5518      2.00000
     20      -6.5065      2.00000
     21      -6.4936      2.00000
     22      -6.4590      2.00000
     23      -6.4539      2.00000
     24      -6.4210      2.00000
     25      -6.4029      2.00000
     26      -6.3286      2.00000
     27      -6.2718      2.00000
     28      -6.2429      2.00000
     29      -6.2296      2.00000
     30      -6.2086      2.00000
     31      -6.1848      2.00000
     32      -6.1487      2.00000
     33      -6.1364      2.00000
     34      -6.1088      2.00000
     35      -6.0909      2.00000
     36      -6.0794      2.00000
     37      -6.0636      2.00000
     38      -6.0380      2.00000
     39      -6.0233      2.00000
     40      -5.9920      2.00000
     41      -5.9656      2.00000
     42      -5.9308      2.00000
     43      -5.8911      2.00000
     44      -5.8409      2.00000
     45      -5.8226      2.00000
     46      -5.8054      2.00000
     47      -5.7738      2.00000
     48      -5.7443      2.00000
     49      -5.7179      2.00000
     50      -5.7047      2.00000
     51      -5.6479      2.00000
     52      -5.6366      2.00000
     53      -5.6083      2.00000
     54      -5.5660      2.00000
     55      -5.5415      2.00000
     56      -5.5118      2.00000
     57      -5.4883      2.00000
     58      -5.4572      2.00000
     59      -5.4266      2.00000
     60      -5.4072      2.00000
[...]
    292       4.1723      0.00000
    293       4.4720      0.00000
    294       4.5263      0.00000
    295       4.6058      0.00000
    296       4.6289      0.00000
    297       4.6486      0.00000
    298       4.8183      0.00000
    299       4.8380      0.00000
    300       4.9372      0.00000
    301       5.0403      0.00000
    302       5.0510      0.00000
    303       5.0833      0.00000
    304       5.1139      0.00000
    305       5.2003      0.00000
    306       5.2549      0.00000

 soft charge-density along one line, spin component           1
         0         1         2         3         4         5         6         7         8         9
 total charge-density along one line

------------------------ aborting loop because EDIFF is reached ----------------------------------------

 VOLUME and BASIS-vectors are now :
  energy-cutoff  :      400.00
  volume of cell :     2567.68
      direct lattice vectors                 reciprocal lattice vectors
    11.002581515  0.000000000  0.000000000     0.090887761 -0.052474073  0.000000000
     5.501290758  9.528515099  0.000000000     0.000000000  0.104948147  0.000000000
     0.000000000  0.000000000 24.491785094     0.000000000  0.000000000  0.040830017

  length of vectors
    11.002581515 11.002581515 24.491785094     0.104948147  0.104948147  0.040830017

 FORCES acting on ions
    electron-ion (+dipol)            ewald-force                    non-local-force                 convergence-correction
   0.119E+02 -.603E+00 0.229E+04   -.124E+02 0.597E+00 -.229E+04   0.474E+00 0.746E-02 0.226E+00   -.106E-01 -.815E-02 -.628E-03
   -.142E+02 -.845E+01 -.144E+02   0.137E+02 0.812E+01 0.149E+02   0.499E+00 0.295E+00 -.516E+00   0.116E-01 0.337E-01 -.798E-02
   0.121E+02 0.145E+01 0.231E+04   -.127E+02 -.152E+01 -.231E+04   0.657E+00 0.397E-01 0.876E-01   0.594E-02 0.337E-01 0.901E-03
   -.963E+01 0.183E+01 -.234E+04   0.102E+02 -.142E+01 0.234E+04   -.583E+00 -.388E+00 0.613E-01   -.396E-02 -.202E-01 -.985E-02
   0.743E+01 -.294E+01 -.527E+02   -.723E+01 0.287E+01 0.522E+02   -.189E+00 0.932E-01 0.441E+00   -.218E-01 -.343E-01 0.867E-03
   0.678E+01 0.141E+01 -.213E+02   -.594E+01 -.126E+01 0.218E+02   -.847E+00 -.149E+00 -.535E+00   0.623E-02 0.135E-02 0.598E-02
   0.898E+00 -.386E+01 0.226E+04   -.651E+00 0.394E+01 -.226E+04   -.260E+00 -.102E+00 0.128E-01   0.211E-01 0.150E-01 -.160E-03
   -.216E+01 -.108E+02 -.198E+02   0.254E+01 0.101E+02 0.203E+02   -.375E+00 0.649E+00 -.572E+00   -.104E-01 0.400E-01 -.102E-01
   0.120E+02 -.192E+01 -.235E+04   -.126E+02 0.193E+01 0.235E+04   0.602E+00 0.113E-01 0.424E-01   -.602E-02 -.169E-01 -.100E-01
   -.721E-01 0.957E+01 -.522E+02   0.807E-01 -.944E+01 0.517E+02   0.996E-02 -.123E+00 0.529E+00   -.212E-01 -.139E-01 0.438E-02
   -.907E+01 0.282E+01 -.321E+02   0.858E+01 -.286E+01 0.321E+02   0.489E+00 0.607E-01 0.973E-02   0.105E-01 -.183E-01 0.481E-02
   -.996E+01 -.159E+02 0.227E+04   0.101E+02 0.159E+02 -.227E+04   -.158E+00 -.464E-01 0.106E+00   -.792E-02 -.167E-01 -.611E-02
   -.168E+02 -.950E+01 -.136E+02   0.164E+02 0.929E+01 0.142E+02   0.379E+00 0.204E+00 -.594E+00   -.287E-02 -.642E-02 0.259E-02
   0.352E+01 0.749E+01 0.230E+04   -.373E+01 -.804E+01 -.230E+04   0.220E+00 0.534E+00 0.940E-01   -.173E-01 0.172E-01 -.147E-01
   0.533E+01 0.199E+01 0.189E+01   -.542E+01 -.243E+01 -.130E+01   0.969E-01 0.435E+00 -.587E+00   0.239E-02 0.254E-01 -.446E-02
   -.680E+01 0.772E+01 -.229E+04   0.670E+01 -.734E+01 0.229E+04   0.925E-01 -.403E+00 -.602E-01   0.119E-01 0.281E-01 0.689E-02
   0.101E+02 0.507E+01 0.147E+02   -.993E+01 -.509E+01 -.143E+02   -.132E+00 -.625E-03 -.415E+00   -.696E-03 0.176E-01 0.788E-02
   -.734E+01 -.474E+01 0.894E+01   0.722E+01 0.465E+01 -.793E+01   0.107E+00 0.911E-01 -.987E+00   0.170E-01 -.818E-02 -.119E-01
   0.302E+01 -.542E+00 -.176E+02   -.366E+01 0.564E+00 0.176E+02   0.645E+00 -.122E-01 -.518E-02   0.318E-02 -.490E-02 -.223E-02
   -.200E+01 0.894E+01 0.229E+04   0.251E+01 -.932E+01 -.229E+04   -.518E+00 0.386E+00 0.558E-01   0.155E-01 -.450E-02 -.104E-02
   0.650E+01 0.704E+01 -.136E+02   -.598E+01 -.637E+01 0.142E+02   -.534E+00 -.649E+00 -.552E+00   -.320E-02 -.126E-01 0.397E-02
   -.136E+02 -.459E+01 0.229E+04   0.145E+02 0.482E+01 -.229E+04   -.914E+00 -.240E+00 -.784E-01   -.207E-02 0.929E-02 0.181E-01
   0.881E+00 0.359E+00 -.234E+04   -.927E+00 -.309E+00 0.234E+04   0.484E-01 -.332E-01 -.156E+00   -.241E-02 -.170E-01 0.246E-01
   -.404E+01 -.210E+00 -.351E+02   0.386E+01 0.756E+00 0.350E+02   0.167E+00 -.515E+00 0.762E-01   0.174E-01 -.311E-01 -.309E-02
   0.177E-01 0.105E+02 -.203E+04   -.207E+00 -.106E+02 0.203E+04   0.185E+00 0.146E+00 0.136E+01   0.802E-02 -.180E-01 -.337E-02
   -.882E+01 -.974E+01 -.203E+04   0.899E+01 0.986E+01 0.202E+04   -.168E+00 -.797E-01 0.140E+01   0.153E-02 -.369E-01 -.517E-02
   -.123E+02 -.586E+01 -.203E+04   0.119E+02 0.567E+01 0.203E+04   0.403E+00 0.201E+00 0.148E+01   0.136E-02 -.693E-02 0.659E-02
   0.245E+02 0.772E+00 0.197E+04   -.251E+02 -.626E+00 -.197E+04   0.682E+00 -.144E+00 -.152E+01   -.310E-02 -.535E-02 -.108E-01
   -.298E+00 0.158E+02 -.201E+04   0.290E+00 -.160E+02 0.201E+04   0.168E-01 0.273E+00 0.150E+01   -.932E-02 -.206E-01 -.226E-01
   -.666E+01 -.134E+02 0.199E+04   0.691E+01 0.137E+02 -.199E+04   -.238E+00 -.276E+00 -.157E+01   -.117E-01 0.177E-01 0.191E-01
   0.701E+01 -.101E+02 0.200E+04   -.683E+01 0.101E+02 -.200E+04   -.172E+00 0.452E-01 -.130E+01   -.145E-02 -.130E-01 -.723E-02
   -.126E+01 0.355E+01 -.203E+04   0.103E+01 -.374E+01 0.203E+04   0.229E+00 0.175E+00 0.147E+01   0.154E-03 0.192E-01 -.343E-02
   -.765E+00 0.502E+01 -.713E+02   0.781E+00 -.482E+01 0.708E+02   -.110E-01 -.200E+00 0.478E+00   0.268E-02 -.590E-02 0.119E-02
   0.660E+01 -.142E+01 0.338E+02   -.652E+01 0.131E+01 -.330E+02   -.829E-01 0.109E+00 -.843E+00   0.194E-02 -.272E-02 -.148E-01
   -.166E+02 0.303E+01 0.199E+04   0.166E+02 -.294E+01 -.199E+04   0.305E-01 -.103E+00 -.156E+01   -.166E-01 0.550E-02 -.100E-02
   0.112E+02 0.224E+02 0.196E+04   -.115E+02 -.230E+02 -.196E+04   0.299E+00 0.595E+00 -.124E+01   0.641E-02 0.224E-01 -.977E-02
   -.441E+01 -.134E+01 -.200E+04   0.484E+01 0.922E+00 0.200E+04   -.448E+00 0.431E+00 0.180E+01   0.193E-01 -.379E-02 0.856E-02
   0.397E+01 -.336E+01 0.200E+04   -.428E+01 0.325E+01 -.200E+04   0.312E+00 0.839E-01 -.114E+01   0.779E-03 0.209E-01 0.135E-01
   -.591E+01 -.314E+01 0.197E+04   0.631E+01 0.348E+01 -.197E+04   -.386E+00 -.345E+00 -.176E+01   -.564E-02 -.362E-02 -.122E-01
   -.422E+00 0.550E+01 -.201E+04   0.685E+00 -.551E+01 0.201E+04   -.279E+00 0.193E-01 0.151E+01   0.106E-01 -.104E-01 -.735E-02
   0.134E+00 0.822E+01 -.203E+04   0.242E+00 -.820E+01 0.203E+04   -.379E+00 -.242E-01 0.141E+01   -.232E-02 0.134E-01 0.149E-01
   0.579E+01 0.301E+01 0.209E+01   -.564E+01 -.292E+01 -.163E+01   -.156E+00 -.920E-01 -.441E+00   0.419E-03 0.784E-02 -.139E-01
   -.813E+01 -.506E+01 0.197E+04   0.811E+01 0.527E+01 -.197E+04   0.201E-01 -.225E+00 -.120E+01   -.257E-02 0.151E-01 0.155E-01
   0.143E+02 -.732E+01 -.201E+04   -.145E+02 0.751E+01 0.201E+04   0.250E+00 -.174E+00 0.156E+01   -.362E-02 -.131E-01 -.643E-02
   -.986E+01 0.136E+02 0.200E+04   0.100E+02 -.136E+02 -.200E+04   -.136E+00 0.406E-01 -.127E+01   -.148E-01 0.207E-01 -.472E-02
   0.685E+01 -.129E+02 -.201E+04   -.701E+01 0.134E+02 0.200E+04   0.145E+00 -.437E+00 0.127E+01   0.150E-01 -.248E-01 0.575E-02
   0.285E+01 -.130E+02 -.204E+04   -.263E+01 0.133E+02 0.204E+04   -.216E+00 -.328E+00 0.157E+01   -.544E-02 -.107E-01 0.598E-03
   0.761E+01 0.358E+01 -.203E+04   -.766E+01 -.387E+01 0.203E+04   0.581E-01 0.270E+00 0.134E+01   -.380E-02 0.210E-01 -.779E-02
   0.886E-01 -.112E+00 -.102E+01   0.135E-12 0.142E-13 -.136E-11   -.643E-01 0.108E+00 0.997E+00   0.151E-03 -.397E-02 -.463E-01

 POSITION                                       TOTAL-FORCE (eV/Angst)
      1.35873      0.77985      9.66912         0.003721     -0.007018     -0.004285
     10.99440      6.34035     12.26086         0.006930      0.001069      0.002332
     12.37075      5.53203      9.61327        -0.000495      0.001667     -0.000337
      9.64218      2.41434     14.86195        -0.002915      0.002509     -0.001150
      8.24441      1.58543     12.28631        -0.011910     -0.001627     -0.001770
      9.63852      8.73059     12.26731         0.001946     -0.003534      0.003029
     11.01451      7.92565      9.68964         0.006918     -0.007571      0.001121
      8.25345      6.33006     12.26667        -0.006774      0.011294      0.000325
      6.85387      2.41024     14.88971        -0.001486      0.005478     -0.002697
      6.86910      3.96125     12.28514        -0.003171     -0.008558     -0.000994
      5.49606      1.59046     12.26947         0.012759      0.003890     -0.000321
      6.89670      0.78957      9.72436         0.002244     -0.008530     -0.004154
      6.87036      8.73000     12.25845        -0.004974     -0.009699      0.002895
      8.24430      7.89671      9.64843        -0.008959     -0.002890      0.002006
      5.48570      6.33182     12.23616         0.010806      0.015169      0.001082
     12.38278      7.17691     14.76707         0.002163      0.003309      0.003758
     13.74384      6.34813     12.22333        -0.007434      0.000279      0.003783
     12.36841      3.97202     12.23993         0.000013      0.000228      0.008262
     15.10437      8.72991     12.25249         0.009260      0.004234      0.002902
      2.77394      3.15067      9.65051         0.004198     -0.006777      0.005549
      2.75448      1.60331     12.25780        -0.013243      0.007439     -0.000769
      4.16734      5.54783      9.65951        -0.003201     -0.005732     -0.001308
      2.74657      0.02057     14.85564        -0.001035     -0.000049     -0.002148
     10.98872      1.59759     12.27623         0.007538     -0.000174      0.003602
     -0.00762      0.00855     14.67593         0.003062      0.000430     -0.000245
      1.38390      2.40984     14.66951        -0.002364      0.001535     -0.003341
     11.00249      4.78739     14.67268        -0.004549      0.008731     -0.001940
     10.98339      3.16068      9.87196         0.000826     -0.002711      0.004459
      8.25215      0.02144     14.66353        -0.001232      0.001255     -0.007395
     13.77165      7.92966      9.82854        -0.002897     -0.001811      0.002765
      9.63343      0.78048      9.85339         0.003406     -0.005363     -0.003253
      9.61666      7.16237     14.67494        -0.001739      0.008541      0.000164
      9.62056      3.95909     12.32139         0.006435     -0.005302     -0.002772
      4.11493      3.96999     12.19959        -0.000565     -0.002421      0.002608
      5.52888      3.15735      9.85101        -0.001632     -0.006211      0.002780
      9.63040      5.52648      9.88194         0.003449     -0.007038      0.002340
      2.76448      4.77157     14.61214         0.000385      0.009203     -0.002811
      5.49958      7.92748      9.82677         0.007284     -0.002500      0.002164
      8.27469      3.17423      9.91069         0.004326     -0.006343     -0.006545
      5.50311      0.02102     14.66593        -0.006450      0.003816     -0.003684
      4.13696      7.16605     14.65609        -0.006154      0.006544     -0.003400
     12.36911      8.73100     12.23518        -0.007300      0.000659      0.005889
      4.12633      0.77191      9.83962         0.001439     -0.000896     -0.004497
      5.48435      4.79384     14.63889        -0.001086     -0.004495     -0.002798
      6.89767      5.52443      9.84005         0.000109      0.001856      0.003603
      4.11728      2.41955     14.64303         0.000016      0.000161     -0.002020
      8.24949      4.80325     14.70170        -0.000470      0.000981     -0.000202
      6.86786      7.15442     14.65899         0.002804      0.006975     -0.002584
    total drift:                                0.024533     -0.008520     -0.071964

  FREE ENERGIE OF THE ION-ELECTRON SYSTEM (eV)
  free  energy   TOTEN  =      -190.81764890 eV

  energy  without entropy=     -190.64769433  energy(sigma->0) =     -190.73267162

 d Force = 0.3522378E-03[-0.413E-04, 0.746E-03]  d Energy = 0.3348386E-03 0.174E-04
 d Force = 0.7660818E+00[ 0.773E+00, 0.759E+00]  d Ewald  = 0.7660840E+00-0.222E-05

 stress matrix after NEB project (eV)
      0.00000      0.00000      0.00000
      0.00000      0.00000      0.00000
      0.00000      0.00000      0.00000
  FORCES: max atom, RMS     0.018656    0.008554
  FORCE total and by dimension    0.059266    0.015169
  Stress total and by dimension    0.000000    0.000000
 Conjugate gradient step on ions:
 trial-energy change:   -0.000335  1 .order   -0.000352   -0.000746    0.000041
  (g-gl).g = 0.187E-03      g.g   = 0.236E-03  gl.gl    = 0.416E-03
 g(Force)  = 0.236E-03   g(Stress)= 0.000E+00 ortho     = 0.354E-04
 gamma     =   0.44857
 trial     =   2.95772
 opt step  =   2.78058  (harmonic =   2.80267) maximal distance =0.00198869
 next E    =  -190.817650   (d E  =  -0.00034)

 reached required accuracy - stopping structural energy minimisation